12
Coordinates from ORCA-job obr_scan E -2812.139378756606
  Li          3.10664858865329      0.27346233769594      0.04371793912379
  C           0.91108824736973      0.79475733110036      0.03377542608584
  C          -0.25543112583568      1.58672427841641      0.04039804566856
  C          -1.44896428707143      0.85212554711138      0.00223962455401
  C          -1.47283317381308     -0.55619448898691     -0.03868882905993
  C          -0.29997143937431     -1.33928197294066     -0.04489968195432
  C           0.74126545077573     -0.45274136603888     -0.00468455100245
  Br          4.08096217663685     -1.72548633301425      0.03473200664028
  H          -0.25779631126586      2.67697254507402      0.07241810237598
  H          -2.39857300508360      1.39031690538333      0.00480114780263
  H          -2.43364244209025     -1.07495802607486     -0.06769156389770
  H          -0.27275167890140     -2.42569675772590     -0.07611866633670
