12
Coordinates from ORCA-job obr_scan E -2812.164737107013
  Li          3.06890062661459      0.67952169540167      0.06892852766034
  C           1.08643812307429      0.83592345308228      0.04519331517144
  C          -0.16485558730711      1.49811252816120      0.04015027402117
  C          -1.36281129434594      0.78387332279364     -0.00232036500498
  C          -1.36594431271588     -0.61786761581353     -0.04123666403197
  C          -0.16156084325664     -1.32535612131123     -0.03945070141783
  C           0.93968932424973     -0.49190132156049      0.00428682004846
  Br          2.89726089593782     -1.69334193075688      0.00169693112703
  H          -0.20731339037878      2.59101459006800      0.07041387284101
  H          -2.31350635163185      1.32082361878242     -0.00497558495352
  H          -2.30785007995030     -1.16864534361244     -0.07300060479934
  H          -0.10844611028993     -2.41215687523466     -0.06968682066181
