12
Coordinates from ORCA-job obr_scan E -2812.170955697743
  Li          3.08949443267070      0.84377368812825      0.06353829718662
  C           1.12004713174340      0.80318803002813      0.04431194212717
  C          -0.13025635535640      1.45789253756396      0.04063771627988
  C          -1.34408740180851      0.77022021637145     -0.00084769776992
  C          -1.36553866715511     -0.62735268439324     -0.04259556459118
  C          -0.16591292967630     -1.33641384653504     -0.04088686491679
  C           0.99360529811442     -0.56858958883158      0.00417642754159
  Br          2.70827333016129     -1.62312251881111      0.01072235833688
  H          -0.16392080297534      2.55196882115699      0.07173998906312
  H          -2.28548974786032      1.32409299239998     -0.00127494544824
  H          -2.31227847386752     -1.16951492415465     -0.07636048193762
  H          -0.14393481399031     -2.42614272292314     -0.07316217587152
