12
Coordinates from ORCA-job obr_scan E -2812.138133550845
  Li          3.12972798567917      0.25111228987160      0.06824368580765
  C           0.89741752912897      0.77100001902938      0.04381436359381
  C          -0.25578352707127      1.58094721860475      0.04057449946493
  C          -1.45715393104546      0.85883773223662     -0.00369665509232
  C          -1.49740809493924     -0.54928051147066     -0.04041676727786
  C          -0.33450111929318     -1.34691324368905     -0.03673772246423
  C           0.71814745770484     -0.47333150482274      0.00746531048421
  Br          4.23264603428021     -1.68080367533641      0.00216320455556
  H          -0.24559136855130      2.67110607424970      0.06864547801092
  H          -2.40066625284318      1.40764658106282     -0.00997083967587
  H          -2.46413417782529     -1.05660034870291     -0.07492729847303
  H          -0.32269953522427     -2.43372063103311     -0.06515825893376
