12
Coordinates from ORCA-job obr_scan E -2812.168832524895
  Li          3.08294996741690      0.76922162993771      0.05674650179092
  C           1.10602100941436      0.81966461144339      0.04614209936002
  C          -0.14643017505359      1.47596445928728      0.04192399490204
  C          -1.35310795609190      0.77627279579345     -0.00091139962843
  C          -1.36707251570948     -0.62326626956871     -0.04313896476363
  C          -0.16526234512729     -1.33143005159835     -0.04087590536684
  C           0.96498645939571     -0.53024437968621      0.00562013778087
  Br          2.80018487924146     -1.65971078737239      0.01395492015513
  H          -0.18499038582380      2.56948662720924      0.07341086234898
  H          -2.29865717997051      1.32263566822491     -0.00196391044520
  H          -2.31175955644113     -1.16898390413192     -0.07762715667726
  H          -0.12686120125075     -2.41961039953839     -0.07328217945660
