12
Coordinates from ORCA-job obr_scan E -2812.156479557727
  Li          3.05061833280202      0.53536702985412      0.07872882030371
  C           1.04251347523323      0.85963025683464      0.04419013476890
  C          -0.20005973258328      1.54156437202632      0.03927306945151
  C          -1.38214411588338      0.79946157536347     -0.00355463461023
  C          -1.36711552792214     -0.60564828965049     -0.03978220422802
  C          -0.15978068350503     -1.31640082470000     -0.03703802237013
  C           0.89320950470404     -0.43372394365346      0.00578280480037
  Br          3.10201010386911     -1.76824924331356     -0.01233611902964
  H          -0.24876464585745      2.63313508338904      0.06783242873580
  H          -2.34163413200823      1.32005162713966     -0.00855112424446
  H          -2.30471332603500     -1.16419035562200     -0.07028669477438
  H          -0.08413825281390     -2.40099728766774     -0.06425945880343
