12
Coordinates from ORCA-job obr_scan E -2812.146901972122
  Li          3.07092958440043      0.38384822124311      0.06056150832829
  C           0.97735639744019      0.87144024998746      0.03959710620138
  C          -0.24419060135414      1.58720127019591      0.04056159058038
  C          -1.41493213712356      0.82209579361322     -0.00081921518412
  C          -1.39046433691080     -0.58587318962795     -0.04046000778276
  C          -0.18530401269404     -1.31106643410086     -0.04152338166852
  C           0.82859699253833     -0.39361741771793      0.00096734342632
  Br          3.46241599591264     -1.84340975144369      0.01286921865277
  H          -0.29260109111096      2.67747990391738      0.07189869812726
  H          -2.38107463040196      1.32992222293116     -0.00173762823226
  H          -2.32905782231902     -1.14331996119550     -0.07070137769921
  H          -0.10167333837711     -2.39470090780232     -0.07121485474954
