12
Coordinates from ORCA-job obr_opt E -2812.170955693753
  Li          3.08938583962378      0.84373555259737      0.06365002830478
  C           1.12004682391582      0.80321824891261      0.04427822089466
  C          -0.13031047525798      1.45791871341239      0.04060799724538
  C          -1.34410006875170      0.77029831018406     -0.00083515445746
  C          -1.36554952663453     -0.62736622272375     -0.04257450464681
  C          -0.16593314287670     -1.33647553705391     -0.04090320276810
  C           0.99357468966825     -0.56853261491176      0.00414751044719
  Br          2.70857434111595     -1.62321486850259      0.01067696123459
  H          -0.16393601626782      2.55194044030711      0.07169834327777
  H          -2.28546898763724      1.32410337397420     -0.00126436329455
  H          -2.31226935722136     -1.16948389283046     -0.07631684473638
  H          -0.14401411967646     -2.42613950336528     -0.07316599150105
