12
Coordinates from ORCA-job obr_scan E -2812.142411727350
  Li          3.08979641657949      0.32298692234896      0.10507697601660
  C           0.94158067191631      0.84280878403911      0.06002922255747
  C          -0.25528012683638      1.59365004225437      0.04006665120608
  C          -1.43350131730568      0.83736849060898     -0.01257910146809
  C          -1.42655591917309     -0.57133081894604     -0.04006327201821
  C          -0.23426774565148     -1.32221131164032     -0.02146614449556
  C           0.78398267124312     -0.41155816867590      0.02680515457390
  Br          3.76077742105939     -1.81049808087200     -0.06325155798572
  H          -0.28562134848802      2.68427478208646      0.06040635910769
  H          -2.39404546506515      1.35525429649443     -0.03401128598608
  H          -2.37405614711013     -1.11328558319873     -0.07823389609145
  H          -0.17280811116837     -2.40745935449933     -0.04278010541664
