12
Product: benzyne + LiBr (approx)
  Li      2.280971     -1.367847      0.009197
  C       1.120047      0.803218      0.044278
  C      -0.130310      1.457919      0.040608
  C      -1.344100      0.770298     -0.000835
  C      -1.365550     -0.627366     -0.042575
  C      -0.165933     -1.336476     -0.040903
  C       0.993575     -0.568533      0.004148
  Br      4.144014     -2.480470      0.015646
  H      -0.163936      2.551940      0.071698
  H      -2.285469      1.324103     -0.001264
  H      -2.312269     -1.169484     -0.076317
  H      -0.144014     -2.426140     -0.073166
