12
Coordinates from ORCA-job obr_scan E -2812.144470181526
  Li          3.08312980743740      0.34988797190936      0.09637024071344
  C           0.95841090046572      0.86114447966113      0.05514811363191
  C          -0.25216296663270      1.59278371816574      0.04010700722256
  C          -1.42497777984849      0.82986200796533     -0.00979303165298
  C          -1.40684858048254     -0.57886531629195     -0.04008197743126
  C          -0.20690869399599     -1.31498553218285     -0.02677542945628
  C           0.80643934070071     -0.39833371336707      0.01986298496842
  Br          3.60662856869234     -1.83611252183259     -0.04597626087009
  H          -0.29374017865385      2.68326933507360      0.06313990360480
  H          -2.38925126706609      1.34090849428335     -0.02638235598939
  H          -2.34895018356006     -1.13015985023580     -0.07561688555344
  H          -0.13176796705645     -2.39939907314826     -0.05000330918769
