12
Coordinates from ORCA-job obr_scan E -2812.149686159222
  Li          3.05753862045931      0.42709896303229      0.05796848287684
  C           0.99805047696095      0.87168901739356      0.03606762890094
  C          -0.23126123220798      1.57554932031069      0.03997170159155
  C          -1.40366066578144      0.81464464277574      0.00080538459512
  C          -1.37900493552936     -0.59255128118756     -0.04040982087184
  C          -0.17182679549972     -1.31124559734704     -0.04367852556589
  C           0.85036277712706     -0.40058867129540     -0.00239790925079
  Br          3.33395854047037     -1.82783085669718      0.01999101436826
  H          -0.28154973296808      2.66604862316215      0.07262923899878
  H          -2.36902072858390      1.32403040489767      0.00318739660293
  H          -2.31632198131935     -1.15203653941612     -0.06967152730593
  H          -0.08726334312784     -2.39480802562882     -0.07446406493997
