12
Coordinates from ORCA-job obr_scan E -2812.160487254524
  Li          3.06319591031114      0.60503732676319      0.07151636357847
  C           1.06577835522571      0.84987909191299      0.04621708321239
  C          -0.18302873334662      1.51996324822676      0.04059869396699
  C          -1.37269949753842      0.79138668836796     -0.00313172629217
  C          -1.36601242627481     -0.61218856709350     -0.04087156148877
  C          -0.15956070887338     -1.31994206240480     -0.03771310117745
  C           0.91493581552658     -0.45885651466013      0.00754680148219
  Br          2.99389799672109     -1.73376621632478     -0.00649676955060
  H          -0.22985928885046      2.61220836653411      0.06942762138527
  H          -2.32834048749194      1.31913884005378     -0.00811890568938
  H          -2.30539821636939     -1.16741874670323     -0.07287035546438
  H          -0.09290771903950     -2.40544145467234     -0.06610514396255
