12
Coordinates from ORCA-job obr_scan E -2812.136707557328
  Li          3.09898723548072      0.18494654290241      0.03849844353731
  C           0.87440695838987      0.68008929732407      0.03203876552440
  C          -0.22822211261117      1.55112395182350      0.03531267593779
  C          -1.45627205690281      0.87445017042647      0.00043405398751
  C          -1.55194260260115     -0.53096203584511     -0.03450375711801
  C          -0.42531516441464     -1.37865679693836     -0.03746100057118
  C           0.67401749903198     -0.55813348886182     -0.00061765779793
  Br          4.57042181879997     -1.46199604893431      0.03203267112963
  H          -0.16792051909392      2.63913517066486      0.06187305572811
  H          -2.37734615154368      1.46040747295973      0.00000357355299
  H          -2.54005589347983     -0.99568146026643     -0.06272925310058
  H          -0.47075801105534     -2.46472277525503     -0.06488257081003
