12
Coordinates from ORCA-job obr_scan E -2812.137342133688
  Li          3.11258436108384      0.21089825539472      0.11003456319129
  C           0.87979418288567      0.72699434216537      0.12831948207027
  C          -0.24476536732896      1.56910964353121      0.05797013104227
  C          -1.45519349181652      0.86732238934999     -0.03769078291330
  C          -1.52081088736945     -0.54032344285921     -0.05835049334780
  C          -0.37786173867330     -1.36242186632626      0.01305440808016
  C           0.69614014165618     -0.51512158547489      0.10404713055676
  Br          4.39793259187085     -1.57236501673317     -0.14830940139910
  H          -0.21027835490831      2.65872738350968      0.06834142353846
  H          -2.38662694212181      1.43318119284621     -0.09922472312949
  H          -2.49595202258336     -1.02651733835536     -0.13503772398131
  H          -0.39496147269483     -2.44948395704831     -0.00315501370822
