12
Coordinates from ORCA-job obr_scan E -2812.152870203357
  Li          3.05476173550349      0.48061014168207      0.07843843391740
  C           1.02079111495058      0.86767842803532      0.04114764200206
  C          -0.21618117206082      1.55944581340994      0.03863148115957
  C          -1.39288482565147      0.80700446675767     -0.00271531260968
  C          -1.37175328824025     -0.59931170347597     -0.03933358367126
  C          -0.16390248087577     -1.31321718011742     -0.03834462099077
  C           0.87089565707885     -0.41401439493950      0.00275158496302
  Br          3.21249557218724     -1.80310878307636     -0.00776884366627
  H          -0.26682689328691      2.65049133115125      0.06798524950093
  H          -2.35616256051304      1.32034378787503     -0.00605879049895
  H          -2.30898262026241     -1.15874617236477     -0.06881781665814
  H          -0.08224923882948     -2.39717573493728     -0.06591642344791
