12
Coordinates from ORCA-job obr_scan E -2812.140761893451
  Li          3.09411069194476      0.29814816918360      0.04353848059388
  C           0.92364880408098      0.81945186181887      0.03426837379314
  C          -0.25671180071665      1.59228240503109      0.04038817295237
  C          -1.44162244622845      0.84525857346833      0.00228472810600
  C          -1.44857449089876     -0.56365334058543     -0.03841351222336
  C          -0.26558929459085     -1.32971899761012     -0.04408199504006
  C           0.76590027060388     -0.43171455767650     -0.00359536201721
  Br          3.92433191320978     -1.77472335528217      0.03136182472575
  H          -0.27357631512680      2.68259576927795      0.07205398639777
  H          -2.39746781040499      1.37227347687671      0.00474010872507
  H          -2.40266666323829     -1.09456169232414     -0.06710286399657
  H          -0.22178185863460     -2.41563831217821     -0.07544294201678
