18
Coordinates from ORCA-job oco2me_opt E -466.523486883204
  Li          0.34735477018647     -2.22924078638040     -1.69383124119317
  C          -1.07400129914130     -1.09530074193931     -0.85092773604340
  C          -2.45789355640721     -0.86854825553482     -0.72510859158095
  C          -2.99214661671926      0.16913656596355      0.03949340265432
  C          -2.15453568357620      1.05288861617566      0.73098130995574
  C          -0.78062530921870      0.88258205130164      0.64862745524166
  C          -0.27397257128417     -0.17451691997658     -0.12947171863560
  C           1.18973579669152     -0.37022482593793     -0.22817465909357
  O           1.71925227942552     -1.27172130945133     -0.88308639837212
  O           1.94009986485625      0.49492594977027      0.43576344501583
  C           3.34652019200814      0.33095253572130      0.33834274335577
  H          -3.16365776559641     -1.52658384780509     -1.24389380392278
  H          -4.07601624875788      0.29824725173974      0.10241619427361
  H          -2.57718352913876      1.86389467293598      1.32642300699811
  H          -0.10158516786073      1.55420814569669      1.17705867954289
  H           3.66685162605257      0.38269603690346     -0.71028353416891
  H           3.79072939162771      1.14701403333430      0.91594377878523
  H           3.65107382685245     -0.64040917251712      0.74972866718733
