7
Coordinates from ORCA-job oxiranyl_optts E -160.445642270859
  Li          1.75856728731429     -0.83914186515834      0.42468509106054
  C           0.60040581756736      0.64583531506639     -0.47458219437077
  C          -0.49848833593507     -0.20207711485936      0.04855574879236
  O           0.13883002396305     -0.93986050576611      1.01529924514622
  H           0.30266789188254      1.70012803121713     -0.64715822576025
  H          -1.35063320464991      0.40215737118215      0.44661049797215
  H          -0.95134948014226     -0.76704123168187     -0.81341016284025
