
                                 *****************
                                 * O   R   C   A *
                                 *****************

                                            #,                                       
                                            ###                                      
                                            ####                                     
                                            #####                                    
                                            ######                                   
                                           ########,                                 
                                     ,,################,,,,,                         
                               ,,#################################,,                 
                          ,,##########################################,,             
                       ,#########################################, ''#####,          
                    ,#############################################,,   '####,        
                  ,##################################################,,,,####,       
                ,###########''''           ''''###############################       
              ,#####''   ,,,,##########,,,,          '''####'''          '####       
            ,##' ,,,,###########################,,,                        '##       
           ' ,,###''''                  '''############,,,                           
         ,,##''                                '''############,,,,        ,,,,,,###''
      ,#''                                            '''#######################'''  
     '                                                          ''''####''''         
             ,#######,   #######,   ,#######,      ##                                
            ,#'     '#,  ##    ##  ,#'     '#,    #''#        ,####,    ,#,          
            ##       ##  ##   ,#'  ##            #'  '#       #'       ,# #          
            ##       ##  #######   ##           ,######,      #####,      #          
            '#,     ,#'  ##    ##  '#,     ,#' ,#      #,     #,   #      #          
             '#######'   ##     ##  '#######'  #'      '#     '####' #    #          



                #########################################################
                #                        -***-                          #
                #          Department of theory and spectroscopy        #
                #                                                       #
                #                      Frank Neese                      #
                #                                                       #
                #     Directorship, Architecture, Infrastructure        #
                #                    SHARK, DRIVERS                     #
                #        Core code/Algorithms in most modules           #
                #                                                       #
                #        Max Planck Institute fuer Kohlenforschung      #
                #                Kaiser Wilhelm Platz 1                 #
                #                 D-45470 Muelheim/Ruhr                 #
                #                      Germany                          #
                #                                                       #
                #                  All rights reserved                  #
                #                        -***-                          #
                #########################################################


                         Program Version 6.1.1  -  RELEASE   -
                                (GIT: $487d211cc3$)
                          ($2025-11-21 10:33:24 +0100$)


 With contributions from (in alphabetic order):
[Max-Planck-Institut fuer Kohlenforschung]                               
  Daniel Aravena         : Magnetic Suceptibility                        
  Michael Atanasov       : Ab Initio Ligand Field Theory (pilot matlab implementation)
  Alexander A. Auer      : GIAO ZORA, VPT2 properties, NMR spectrum      
  Ute Becker             : All parallelization in ORCA, NUMFREQ, NUMCALC 
  Giovanni Bistoni       : ED, misc. LED, open-shell LED, HFLD           
  Dmytro Bykov           : pre 5.0 version of the SCF Hessian            
  Marcos Casanova-Páez   : Triplet and SCS-CIS(D). UHF-(DLPNO)-IP/EA/STEOM-CCSD. UHF-CVS-IP/STEOM-CCSD   
  Vijay G. Chilkuri      : MRCI spin determinant printing, contributions to CSF-ICE 
  Pauline Colinet        : FMM embedding                                 
  Dipayan Datta          : RHF DLPNO-CCSD density                        
  Achintya Kumar Dutta   : EOM-CC, STEOM-CC                              
  Nicolas Foglia         : Exact transition moments, OPA infrastructure, MCD improvements    
  Dmitry Ganyushin       : Spin-Orbit,Spin-Spin,Magnetic field MRCI      
  Miquel Garcia-Rates    : C-PCM and meta-GGA Hessian, CCSD/C-PCM, Gaussian charge scheme 
  Tiago L. C. Gouveia    : GS-ROHF, GS-ROCIS                             
  Yang Guo               : DLPNO-NEVPT2, F12-NEVPT2, CIM, IAO-localization        
  Andreas Hansen         : Spin unrestricted coupled pair/coupled cluster methods 
  Ingolf Harden          : AUTO-CI MPn and infrastructure                
  Benjamin Helmich-Paris : MC-RPA, TRAH-(SCF,CASSCF), AVAS, COSX integrals, SCF dyn. polar., MC-PDFT, srDFT 
  Lee Huntington         : MR-EOM, pCC                                   
  Robert Izsak           : Overlap fitted RIJCOSX, COSX-SCS-MP3, EOM     
  Riya Kayal             : Wick's Theorem for AUTO-CI, AUTO-CI UHF-CCSDT 
  Emily Kempfer          : AUTO-CI RHF CISDT and CCSDT, approximate NEVPT4
  Christian Kollmar      : KDIIS, OOCD, Brueckner-CCSD(T), CCSD density, CASPT2, CASPT2-K, improved NEVPT2 
  Axel Koslowski         : Symmetry handling                             
  Simone Kossmann        : meta-GGA functionals, TD-DFT gradient, OOMP2, (MP2 Hessian; deprecated post 5.0) 
  Lucas Lang             : DCDCAS, Hyperfine gauge corrections, ICE-SOC+SSC
  Marvin Lechner         : AUTO-CI (C++ implementation), FIC-MRCC        
  Spencer Leger          : CASSCF response                               
  Dagmar Lenk            : GEPOL surface, SMD, ORCA-2-JSON               
  Dimitrios Liakos       : Extrapolation schemes; Compound Job, Property file
  Dimitrios Manganas     : Further ROCIS development; embedding schemes. LFT, Crystal Embedding 
  Dimitrios Pantazis     : SARC Basis sets                               
  Anastasios Papadopoulos: AUTO-CI, single reference methods and gradients 
  Taras Petrenko         : pre 6.0 DFT Hessian and TD-DFT gradient,  ECA, NRVS 
  Petra Pikulova         : Analytic Raman intensities                    
  Peter Pinski           : DLPNO-MP2, DLPNO-MP2 Gradient                 
  Shashank Vittal Rao    : ES-AILFT, MagRelax                            
  Christoph Reimann      : Effective Core Potentials                     
  Marius Retegan         : Local ZFS, SOC                                
  Christoph Riplinger    : Optimizer, TS searches, QM/MM, DLPNO-CCSD(T), (RO)-DLPNO pert. Triples 
  Michael Roemelt        : Original ROCIS implementation, recursive CI coupling coefficients
  Masaaki Saitow         : Open-shell DLPNO-CCSD energy and density      
  Barbara Sandhoefer     : DKH picture change effects                    
  Yorick L. A. Schmerwitz: GMF and freeze-and-release deltaSCF, NEB S-IDPP initial path                    
  Kantharuban Sivalingam : CASSCF convergence/infrastructure, NEVPT2, NEVPT3, NEVPT4(SD), FIC-MRCI and CEPA variants
  Bernardo de Souza      : ESD, SOC TD-DFT                               
  Georgi L. Stoychev     : AutoAux, RI-MP2 NMR, DLPNO-MP2 response, X2C  
  Van Anh Tran           : RI-MP2 g-tensors                              
  Willem Van den Heuvel  : Paramagnetic NMR                              
  Zikuan Wang            : NOTCH, Electric field optimization            
  Frank Wennmohs         : Technical directorship and infrastructure     
  Hang Xu                : AUTO-CI-Response properties                   
                                                                         
[FACCTs GmbH]                                                            
  Markus Bursch, Nicolas Foglia, Miquel Garcia-Rates, Ingolf Harden, Hagen Neugebauer, Anastasios Papadopoulos, 
  Christoph Riplinger, Bernardo de Souza, Georgi L. Stoychev                                                    
                                                                 
  APM, various basis sets, CI-OPT, improved COSX, DLPNO-Multilevel,           
  DOCKER, DRACO, updates on ESD, Fragmentator, GOAT, IRC, LR-CPCM, L-BFGS, MBIS, meta-GGA TD-DFT gradient, ML-optimized integration grids, 
  MM, NACMEs, nearIR, NEB, NEB-TS, NL-DFT gradient (VV10), 2- and 3-layer-ONIOM, interface openCOSMO-RS, QMMM,   
  Crystal-QMMM, RESP, rigid body optimization, SF, symmetry and pop. for TD-DFT, various functionals, SOLVATOR                                   
                                                                         
[Other institutions]                                                     
  V. Asgeirsson          : NEB                                           
  Christoph Bannwarth    : sTDA-DFT, sTD-DFT, PBEh-3c, B97-3c, D3        
  Giovanni Bistoni       : ETS/NOCV, ADLD/ADEX, COVALED                  
  Martin Brehm           : Molecular dynamics                            
  Ronald Cardenas        : ETS/NOCV                                      
  Martina Colucci        : COVALED                                       
  Sebastian Ehlert       : rSCAN, r2SCAN, r2SCAN-3c, D4, dhf basis sets  
  Marvin Friede          : D4 for Fr, Ra, Ac-Lr                          
  Lars Goerigk           : TD-DFT with DH, B97 family of functionals     
  Stefan Grimme          : VdW corrections, initial TS optimization, DFT functionals, gCP, sTDA/sTD-DF 
  Waldemar Hujo          : DFT-NL                                        
  H. Jonsson             : NEB                                           
  Holger Kruse           : gCP                                           
  Marcel Mueller         : wB97X-3c, vDZP basis set                      
  Hagen Neugebauer       : wr2SCAN, Native XTB                           
  Gianluca Regni         : ADLD/ADEX                                     
  Tobias Risthaus        : pre 6.0 range-separated hybrid DFT and stability analysis
  Lukas Wittmann         : regularized MP2, r2SCAN double-hybrids, wr2SCAN        
                                                                         
We gratefully acknowledge several colleagues who have allowed us to      
interface, adapt or use parts of their codes:                            
  Ed Valeev, F. Pavosevic, A. Kumar             : LibInt (2-el integral package), F12 methods 
  Garnet Chan, S. Sharma, J. Yang, R. Olivares  : DMRG                   
  Ulf Ekstrom                                   : XCFun DFT Library      
  Mihaly Kallay                                 : mrcc  (arbitrary order and MRCC methods)
  Frank Weinhold                                : gennbo (NPA and NBO analysis)           
  Simon Mueller                                 : openCOSMO-RS                            
  Christopher J. Cramer and Donald G. Truhlar   : smd solvation model                     
  S Lehtola, MJT Oliveira, MAL Marques          : LibXC Library                           
  Liviu Ungur et al                             : ANISO software                          


 Your calculation uses the libint2 library for the computation of 2-el integrals
 For citations please refer to: http://libint.valeyev.net

 Your ORCA version has been built with support for libXC version: 7.0.0
 For citations please refer to: https://libxc.gitlab.io

 This ORCA versions uses:
   CBLAS   interface :  Fast vector & matrix operations
   LAPACKE interface :  Fast linear algebra routines
   SCALAPACK package :  Parallel linear algebra routines
   Shared memory     :  Shared parallel matrices
   BLAS/LAPACK       :  OpenBLAS 0.3.30 DYNAMIC_ARCH NO_AFFINITY neoversen1 SINGLE_THREADED
        Core in use  :  neoversen1
   Copyright (c) 2011-2014, The OpenBLAS Project


  ***********************************
  * Starting time: Wed Apr 15 15:07:37 2026
  * Host name:     zhaowenyuandeMacBook-Air.local
  * Process ID:    6050
  * Working dir.:  /Users/zhaowenyuan/Projects/FlowFigTabMiner/data/ml_lifetime/ts_calc
  ***********************************

NOTE: MaxCore=4000 MB was set to SCF,MP2,MDCI,CIPSI,MRCI,RASCI and CIS
      => If you want to overwrite this, your respective input block should be placed after the MaxCore statement
XCFun DFT library Copyright 2009-2010 Ulf Ekstrom and contributors.
See http://admol.org/xcfun for more information.
This is free software; see the source code for copying conditions.
There is ABSOLUTELY NO WARRANTY; not even for MERCHANTABILITY or FITNESS FOR A PARTICULAR PURPOSE.
For details see the documentation.
Scientific users of this library should cite U. Ekstrom, L. Visscher, R. Bast, A. J. Thorvaldsen and K. Ruud;
J.Chem.Theor.Comp. 2010, DOI: 10.1021/ct100117s
XCFun Version 0.99 

Your calculation utilizes a Nudged-Elastic-Band implementation
by V. Ásgeirsson, C. Riplinger & H. Jónsson
Please cite in your paper:
Ásgeirsson, V.; Birgisson, B. O.; Bjornsson, R.; Becker, U.; Neese, F.; Riplinger, R.;
Jónsson H. J. Chem. Theory Comput. 2021, 17, 4929-4945
   

================================================================================

----- Orbital basis set information -----
Your calculation utilizes the basis: def2-SVP
   F. Weigend and R. Ahlrichs, Phys. Chem. Chem. Phys. 7, 3297 (2005).

================================================================================
                                        WARNINGS
                       Please study these warnings very carefully!
================================================================================

WARNING: Functional chosen is sensitive to the integration grid.
         DEFGRID3 seems to be a minimum grid for robust results!

WARNING: Geometry Optimization
  ===> : Switching off AutoStart
         For restart on a previous wavefunction, please use MOREAD

================================================================================
                                       INPUT FILE
================================================================================
NAME = oxiranyl_neb2.inp
|  1> ! DFT def2-SVP NEB-TS TightSCF
|  2> %method
|  3>   functional M062X
|  4> end
|  5> %maxcore 4000
|  6> %scf
|  7>   MaxIter 300
|  8> end
|  9> %neb
| 10>   NImages 8
| 11>   Product "oxiranyl_product.xyz"
| 12>   PrintLevel 1
| 13> end
| 14> * xyz 0 1
| 15>   Li          1.78940802676934     -0.90858194095170      0.12273235811243
| 16>   C           0.60489341058949      0.50420301674554     -0.37297657880700
| 17>   C          -0.68696745793186     -0.17185593115682     -0.11297090662845
| 18>   O           0.28829166202322     -0.28138315240707      0.90719635478064
| 19>   H           0.52232846681688      1.57349274822585     -0.12164258839119
| 20>   H          -1.57314893062413      0.39518510006658      0.20071875566218
| 21>   H          -0.94480417764294     -1.11106084052238     -0.62305739472861
| 22> *
| 23> 
| 24>                          ****END OF INPUT****
================================================================================


--------------------------------------------------------------------------------
                        Nudged Elastic Band Calculation
--------------------------------------------------------------------------------

Number of images (incl. end points)     ....  10
Number of intermediate images           ....  8
Number of optimized images              ....  8
Optimization of end points before NEB   ....  NO
Use existing gbw files for MO input     ....  NO
Number of atoms                         ....  7
Number of (active) degrees of freedom   ....  21
Constrained atoms                       ....  None

-----------------------------------------
  REACTANT (ANGSTROEM)
-----------------------------------------
Li     1.789408    -0.908582     0.122732 
C      0.604893     0.504203    -0.372977 
C     -0.686967    -0.171856    -0.112971 
O      0.288292    -0.281383     0.907196 
H      0.522328     1.573493    -0.121643 
H     -1.573149     0.395185     0.200719 
H     -0.944804    -1.111061    -0.623057 

-----------------------------------------
  PRODUCT (ANGSTROEM)
-----------------------------------------
Li     1.425992    -0.793783     0.461461 
C      0.048232     0.410443    -0.661336 
C     -0.480766    -0.090425     0.504976 
O     -0.174066    -1.242925     0.971128 
H     -0.157294     1.427029    -0.992621 
H     -1.115367     0.575117     1.124922 
H      0.453270    -0.285457    -1.408531 



----------------------
NEB settings
----------------------
Method type                             ....  climbing image
Threshold for climbing image            ....  2.00e-02 Eh/Bohr 
Free endpoints                          ....  off 
Tangent type                            ....  improved 
Number of intermediate images           ....  8 
Number of images free to move           ....  8 
Spring type for image distribution      ....  distance between adjacent images 
Spring constant                         ....  energy weighted (0.0100 -to- 0.1000) Eh/Bohr^2 
Spring force perp. to the path          ....  none 
Generation of initial path              ....  image dependent pair potential 
Initial path via TS guess               ....  off 

Minimization of RMSD: Rotation          ....  always 
Minimization of RMSD: Translation type  ....  centroid 
Center fixed to origin                  ....  true 
Remove external force                   ....  true 

Reparametrization of the path           ....  off 
Convergence thresholds:
Convergence monitored for               ....  all images
Scaling factor                          ....  10.00

Convergence parameters for regular images:
               Max(|Fp|)                ....  2.00e-02 Eh/Bohr
               RMS(Fp)                  ....  1.00e-02 Eh/Bohr

Convergence parameters for climbing image:
               Max(|F|)                 ....  2.00e-03 Eh/Bohr
               RMS(F)                   ....  1.00e-03 Eh/Bohr
Optimization method:
Method                                  ....  L-BFGS
Max. iterations                         ....  500 
Step size                               ....  1.00 
Maximum allowed step size               ....  0.10 Bohr

LBFGS parameters: 
               Memory                   ....  20 
               Initial step size        ....  0.0010 
               Estimate curvature       ....  YES 
               Reset on maxmove         ....  YES 
               Reparam. on reset        ....  NO 
Generation of  the initial path:
Minimize RMSD between reactant and product configurations     .... done
       RMSD before minimization         ....  1.1536 Bohr
       RMSD after minimization          ....  1.1419 Bohr
Performing linear interpolation         ....  done
Generating initial path 1 out of 129 -> Success!
Displacement along initial path:              5.4262 Bohr
Writing initial trajectory to file      ....  oxiranyl_neb2_initial_path_trj.xyz



----------------------
NEB OPTIMIZATION      
----------------------

Following output files will be written:
Energy profile during opt. written to    ....  oxiranyl_neb2.interp
Optimization log-file                    ....  oxiranyl_neb2.NEB.log
Current trajectory will be written to    ....  oxiranyl_neb2_MEP_trj.xyz
       and to allxyz file                ....  oxiranyl_neb2_MEP.allxyz
       and individual images to xyz file ....  oxiranyl_neb2_im{NIm}.xyz
Trajectory history will be written to    ....  oxiranyl_neb2_MEP_ALL_trj.xyz
Converged CI will be written to          ....  oxiranyl_neb2_NEB-CI_converged.xyz
Converged TS will be written to          ....  oxiranyl_neb2_NEB-TS_converged.xyz

Single point energy and gradient calculation of reactant and
product configurations (have to be performed only once)
Properties of fixed NEB end points:
               Reactant:
                         E               ....   -160.501309 Eh
                         RMS(F)          ....      0.000104 Eh/Bohr
                         MAX(|F|)        ....      0.000300 Eh/Bohr
               Product:
                         E               ....   -160.587317 Eh
                         RMS(F)          ....      0.001899 Eh/Bohr
                         MAX(|F|)        ....      0.004775 Eh/Bohr



Starting iterations:

Optim.  Iteration  HEI  E(HEI)-E(0)  max(|Fp|)   RMS(Fp)    dS
Switch-on CI threshold               0.020000 
   LBFGS     0      4    0.146398    0.122640   0.027135  5.4262       
   LBFGS     1      4    0.129467    0.069858   0.021258  5.4143       
   LBFGS     2      4    0.106646    0.047705   0.015204  5.4966       
   LBFGS     3      4    0.089697    0.041285   0.010993  5.6358       
   LBFGS     4      4    0.078547    0.034892   0.009025  5.7555       
   LBFGS     5      3    0.069615    0.042902   0.009458  5.9048       
   LBFGS     6      3    0.064220    0.025057   0.007135  6.0664       
   LBFGS     7      3    0.062043    0.070301   0.010931  6.1356       
   LBFGS     8      3    0.060900    0.025982   0.007117  6.1770       
   LBFGS     9      3    0.058573    0.021366   0.005475  6.3373       
   LBFGS    10      3    0.058187    0.020182   0.004422  6.3540       
   LBFGS    11      3    0.057965    0.012864   0.003555  6.3726       

Image  3 will be converted to a climbing image in the next iteration (max(|Fp|) < 0.0200) 

Optim.  Iteration  CI   E(CI)-E(0)   max(|Fp|)   RMS(Fp)    dS     max(|FCI|)   RMS(FCI)
Convergence thresholds               0.020000   0.010000            0.002000    0.001000 
   LBFGS    12      3    0.057615    0.016974   0.004692  6.4047    0.008300    0.003307       
   LBFGS    13      3    0.057455    0.016233   0.003904  6.4299    0.007174    0.003058       
   LBFGS    14      3    0.057065    0.008624   0.002659  6.5131    0.004416    0.002002       
   LBFGS    15      3    0.057004    0.014428   0.002848  6.5074    0.004111    0.001564       
   LBFGS    16      3    0.056969    0.007994   0.002315  6.5042    0.003889    0.001613       
   LBFGS    17      3    0.056765    0.010795   0.002725  6.5065    0.006520    0.002391       
   LBFGS    18      3    0.056678    0.016825   0.003589  6.5133    0.004163    0.001662       
   LBFGS    19      3    0.056656    0.009531   0.002319  6.5175    0.004817    0.001881       
   LBFGS    20      3    0.056533    0.008714   0.001829  6.5360    0.003221    0.001532       
   LBFGS    21      3    0.056480    0.013956   0.002817  6.5363    0.002407    0.001129       
   LBFGS    22      3    0.056468    0.008887   0.002028  6.5386    0.003854    0.001547       
   LBFGS    23      3    0.056413    0.006254   0.001707  6.5633    0.006224    0.002486       
   LBFGS    24      3    0.056448    0.016245   0.003219  6.5693    0.008300    0.003321       
   LBFGS    25      3    0.056361    0.009166   0.002013  6.5769    0.006078    0.002678       
   LBFGS    26      3    0.056208    0.017312   0.002354  6.5980    0.001823    0.001026       
   LBFGS    27      3    0.056145    0.021340   0.002713  6.6374    0.004274    0.001509       
   LBFGS    28      3    0.056109    0.011377   0.001795  6.6371    0.001435    0.000700       

                                .--------------------.
          ----------------------| CI-NEB convergence |-------------------------
          Item                value                   Tolerance       Converged
          ---------------------------------------------------------------------
          RMS(Fp)             0.0017945477            0.0100000000      YES
          MAX(|Fp|)           0.0113765034            0.0200000000      YES
          RMS(FCI)            0.0007000930            0.0010000000      YES
          MAX(|FCI|)          0.0014349610            0.0020000000      YES
          ---------------------------------------------------------------------

The elastic band and climbing image have converged successfully to a MEP in 28 iterations!


                    *********************H U R R A Y*********************
                    ***        THE NEB OPTIMIZATION HAS CONVERGED     ***
                    *****************************************************



---------------------------------------------------------------
                         PATH SUMMARY              
---------------------------------------------------------------
All forces in Eh/Bohr.

Image Dist.(Ang.)    E(Eh)   dE(kcal/mol)  max(|Fp|)  RMS(Fp)
  0     0.000    -160.50131      0.00       0.00029   0.00010
  1     0.536    -160.47401     17.13       0.00123   0.00061
  2     0.850    -160.45235     30.72       0.00117   0.00060
  3     1.135    -160.44520     35.21       0.00142   0.00070 <= CI
  4     1.349    -160.44928     32.65       0.00152   0.00079
  5     1.556    -160.45980     26.05       0.00237   0.00106
  6     1.839    -160.48638      9.37       0.00204   0.00088
  7     2.230    -160.53256    -19.61       0.01138   0.00503
  8     3.074    -160.57770    -47.94       0.00175   0.00069
  9     3.512    -160.58732    -53.97       0.00476   0.00190

Straight line distance between images along the path:
        D( 0- 1) =   0.5357 Ang.
        D( 1- 2) =   0.3138 Ang.
        D( 2- 3) =   0.2855 Ang.
        D( 3- 4) =   0.2136 Ang.
        D( 4- 5) =   0.2077 Ang.
        D( 5- 6) =   0.2826 Ang.
        D( 6- 7) =   0.3915 Ang.
        D( 7- 8) =   0.8434 Ang.
        D( 8- 9) =   0.4384 Ang.

---------------------------------------------------------------
               INFORMATION ABOUT SADDLE POINT     
---------------------------------------------------------------

Climbing image                            ....  3 
Energy                                    ....  -160.44520022 Eh
Max. abs. force                           ....  1.4350e-03 Eh/Bohr

-----------------------------------------
  SADDLE POINT (ANGSTROEM)
-----------------------------------------
Li     1.720059    -0.897408     0.366531 
C      0.598632     0.666238    -0.461969 
C     -0.487282    -0.186212     0.074499 
O      0.137005    -0.906286     1.061990 
H      0.294085     1.713892    -0.659860 
H     -1.384735     0.375925     0.431989 
H     -0.877764    -0.766149    -0.813180 

-----------------------------------------
  FORCES (Eh/Bohr)
-----------------------------------------
Li     0.000685     0.001163     0.001435 
C     -0.000110    -0.000936    -0.000016 
C     -0.000074     0.000184     0.000090 
O     -0.000148    -0.000697    -0.001330 
H     -0.000006    -0.000150    -0.000101 
H      0.001028     0.000431     0.000085 
H     -0.001375     0.000006    -0.000162 

-----------------------------------------
  UNIT TANGENT
-----------------------------------------
Li    -0.092414     0.006208     0.116905 
C     -0.047498     0.101705    -0.008640 
C      0.231191     0.067736     0.313993 
O     -0.164842    -0.499027     0.021223 
H     -0.212092    -0.054455    -0.477915 
H      0.059851    -0.041632     0.123521 
H      0.225803     0.419466    -0.089087 
 => Unit tangent is an approximation to the TS mode at the saddle point

Next a TS optimization is performed on the CI from the NEB run.

         *************************************************************
         *                       TS OPTIMIZATION                     *
         *************************************************************


Following output files will be written:
Converged TS will be written to          ....  oxiranyl_neb2_NEB-TS_converged.xyz
                                         ....  oxiranyl_neb2.xyz
Current trajectory will be written to    ....  oxiranyl_neb2_trj.xyz
Initial Hessian will be stored in        ....  oxiranyl_neb2.appr.hess
 (Almloef) Geometry optimization settings:
Update method            Update   .... Bofill
Choice of coordinates    CoordSys .... (2022) Redundant Internals
Initial Hessian          InHess   .... Read
Max. no of cycles        MaxIter  .... 50

Convergence Tolerances:
Energy Change            TolE     ....  5.0000e-06 Eh
Max. Gradient            TolMAXG  ....  3.0000e-04 Eh/bohr
RMS Gradient             TolRMSG  ....  1.0000e-04 Eh/bohr
Max. Displacement        TolMAXD  ....  4.0000e-03 bohr
RMS Displacement         TolRMSD  ....  2.0000e-03 bohr
Strict Convergence                .... False

------------------------------------------------------------------------------
                        ORCA OPTIMIZATION COORDINATE SETUP
------------------------------------------------------------------------------

The optimization will be done in redundant internal coordinates (2022)
Making redundant internal coordinates   ...  (2022 redundants) done
Following TS mode number                ...     0
TS-active-atoms for coordinate setup... 2 3 4 6 
Evaluating the initial hessian          ... (Reading Exact Hessian)...  
InHessName: oxiranyl_neb2.appr.hess	The file <oxiranyl_neb2.appr.hess> is opened as a .hess file
done
done
Evaluating the coordinates              ...  done
Calculating the B-matrix                .... done
Calculating the G-matrix                .... done
The number of degrees of freedom        ....   45

    -----------------------------------------------------------------
                    Redundant Internal Coordinates


    -----------------------------------------------------------------
         Definition                    Initial Value    d2E/dq (diagonal element)
    -----------------------------------------------------------------
      1. B(C   1,Li  0)                  2.0950         0.156792   
      2. B(C   2,Li  0)                  2.3374         0.116371   
      3. B(C   2,C   1)                  1.4811         0.269033   
      4. B(O   3,C   2)                  1.3724         0.332576   
      5. B(O   3,C   1)                  2.2379         0.097722   
      6. B(O   3,Li  0)                  1.7291         0.425545   
      7. B(H   4,C   1)                  1.1088         0.338419   
      8. B(H   5,C   2)                  1.1177         0.325819   
      9. B(H   6,C   2)                  1.1299         0.337336   
     10. A(C   1,Li  0,O   3)           70.9021         0.026314   
     11. A(C   1,Li  0,C   2)           38.5550         0.020236   
     12. A(C   2,Li  0,O   3)           35.6318         0.027921   
     13. A(C   2,C   1,H   4)          114.0209         0.041955   
     14. A(Li  0,C   1,H   4)          157.3387         0.032323   
     15. A(Li  0,C   1,C   2)           79.6097         0.029112   
     16. A(C   1,C   2,O   3)          103.2438         0.033308   
     17. A(Li  0,C   2,O   3)           47.2238         0.043512   
     18. A(Li  0,C   2,C   1)           61.8354         0.023651   
     19. A(Li  0,C   2,H   5)          150.6157         0.029594   
     20. A(C   1,C   2,H   5)          114.5250         0.026116   
     21. A(O   3,C   2,H   5)          113.5164         0.047569   
     22. A(Li  0,C   2,H   6)          105.5652         0.043412   
     23. A(C   1,C   2,H   6)          105.3204         0.023774   
     24. A(H   5,C   2,H   6)          103.4104         0.068011   
     25. A(O   3,C   2,H   6)          116.9481         0.041816   
     26. A(Li  0,O   3,C   2)           97.1445         0.054488   
     27. D(C   2,C   1,Li  0,O   3)    -18.9870         0.006890   
     28. D(H   4,C   1,Li  0,C   2)    129.4192         0.016873   
     29. D(H   4,C   1,Li  0,O   3)    110.4322         0.016304   
     30. D(H   5,C   2,Li  0,C   1)    -90.5044         0.023573   
     31. D(O   3,C   2,C   1,H   4)   -137.5322         0.031445   
     32. D(H   5,C   2,Li  0,O   3)     57.6427         0.019250   
     33. D(O   3,C   2,Li  0,C   1)   -148.1472         0.004885   
     34. D(H   6,C   2,Li  0,O   3)   -112.5312         0.029127   
     35. D(Li  0,C   2,C   1,H   4)   -160.9823         0.023219   
     36. D(O   3,C   2,C   1,Li  0)     23.4501         0.014292   
     37. D(C   1,C   2,Li  0,O   3)    148.1472         0.004885   
     38. D(H   5,C   2,C   1,Li  0)    147.3638         0.032778   
     39. D(H   5,C   2,C   1,H   4)    -13.6185         0.047469   
     40. D(H   6,C   2,C   1,Li  0)    -99.7247         0.046016   
     41. D(H   6,C   2,Li  0,C   1)     99.3217         0.027499   
     42. D(Li  0,O   3,C   2,H   6)     86.5444         0.041664   
     43. D(Li  0,O   3,C   2,H   5)   -153.1266         0.020000   
     44. D(Li  0,O   3,C   2,C   1)    -28.5525         0.009745   
     45. D(C   2,O   3,Li  0,C   1)     20.3699         0.005854   
    -----------------------------------------------------------------

Number of atoms                         .... 7
Number of degrees of freedom            .... 45


         *************************************************************
         *                GEOMETRY OPTIMIZATION CYCLE   1            *
         *************************************************************
------------------------------------------------------------------------------
                             ORCA STARTUP CALCULATIONS
------------------------------------------------------------------------------
------------------------------------------------------------------------------
                   ___                                                        
                  /   \      - P O W E R E D   B Y -                         
                 /     \                                                     
                 |  |  |   _    _      __       _____    __    __             
                 |  |  |  | |  | |    /  \     |  _  \  |  |  /  |          
                  \  \/   | |  | |   /    \    | | | |  |  | /  /          
                 / \  \   | |__| |  /  /\  \   | |_| |  |  |/  /          
                |  |  |   |  __  | /  /__\  \  |    /   |      \           
                |  |  |   | |  | | |   __   |  |    \   |  |\   \          
                \     /   | |  | | |  |  |  |  | |\  \  |  | \   \       
                 \___/    |_|  |_| |__|  |__|  |_| \__\ |__|  \__/        
                                                                              
                      - O R C A' S   B I G   F R I E N D -                    
                                      &                                       
                       - I N T E G R A L  F E E D E R -                       
                                                                              
 v1 FN, 2020, v2 2021, v3 2022-2024                                           
------------------------------------------------------------------------------


----------------------
SHARK INTEGRAL PACKAGE
----------------------

Number of atoms                             ...      7
Number of basis functions                   ...     66
Number of shells                            ...     32
Maximum angular momentum                    ...      2
Integral batch strategy                     ... SHARK/LIBINT Hybrid
RI-J (if used) integral strategy            ... SPLIT-RIJ (Revised 2003 algorithm where possible)
Printlevel                                  ...      1
Contraction scheme used                     ... SEGMENTED contraction
Prescreening option                         ... SCHWARTZ
   Thresh                                   ... 2.500e-11
   Tcut                                     ... 2.500e-12
   Tpresel                                  ... 2.500e-12 
Coulomb Range Separation                    ... NOT USED
Exchange Range Separation                   ... NOT USED
Multipole approximations                    ... NOT USED
Finite Nucleus Model                        ... NOT USED
CABS basis                                  ... NOT available
Auxiliary Coulomb fitting basis             ... NOT available
Auxiliary J/K fitting basis                 ... NOT available
Auxiliary Correlation fitting basis         ... NOT available
Auxiliary 'external' fitting basis          ... NOT available

Checking pre-screening integrals            ... done (  0.0 sec) Dimension = 32
   => SHARK Basis and OBASIS are compatible. Storing Pre-screening
Shell pair information
Shell pair cut-off parameter TPreSel        ...   2.5e-12
Total number of shell pairs                 ...       528
Shell pairs after pre-screening             ...       527
Total number of primitive shell pairs       ...      1950
Primitive shell pairs kept                  ...      1662
          la=0 lb=0:    170 shell pairs
          la=1 lb=0:    198 shell pairs
          la=1 lb=1:     66 shell pairs
          la=2 lb=0:     54 shell pairs
          la=2 lb=1:     33 shell pairs
          la=2 lb=2:      6 shell pairs

Checking whether 4 symmetric matrices of dimension 66 fit in memory
:Max Core in MB      =   4000.00
 MB in use           =      1.78
 MB left             =   3998.22
 MB needed           =      0.07
 Data fit in memory  = YES
Calculating Nuclear repulsion               ... done (  0.0 sec) ENN=     79.228599066066 Eh

Diagonalization of the overlap matrix:
Smallest eigenvalue                        ... 4.236e-03
Time for diagonalization                   ...    0.000 sec
Threshold for overlap eigenvalues          ... 1.000e-07
Number of eigenvalues below threshold      ... 0
Time for construction of square roots      ...    0.000 sec
Total time needed                          ...    0.001 sec

-------------------
DFT GRID GENERATION
-------------------

General Integration Accuracy     IntAcc      ... 4.388
Radial Grid Type                 RadialGrid  ... OptM3 with GC (2021)
Angular Grid (max. ang.)         AngularGrid ... 4 (Lebedev-302)
Angular grid pruning method      GridPruning ... 4 (adaptive)
Weight generation scheme         WeightScheme... mBecke (2022)
Basis function cutoff            BFCut       ... 1.0000e-11
Integration weight cutoff        WCut        ... 1.0000e-14
Partially contracted basis set               ... off
Rotationally invariant grid construction     ... off
Angular grids for H and He will be reduced by one unit

Total number of grid points                  ...    33983
Total number of batches                      ...      533
Average number of points per batch           ...       63
Average number of grid points per atom       ...     4855
Grids setup in   0.1 sec
Initializing property integral containers    ... done (  0.0 sec)

SHARK setup successfully completed in   0.1 seconds

Maximum memory used throughout the entire STARTUP-calculation: 12.6 MB
-------------------------------------------------------------------------------
                                 ORCA GUESS
                   Start orbitals & Density for SCF / CASSCF
-------------------------------------------------------------------------------

------------
SCF SETTINGS
------------
Hamiltonian:
 Density Functional     Method          .... DFT(GTOs)
 Exchange Functional    Exchange        .... M062X
 Correlation Functional Correlation     .... M062X
 Gradients option       PostSCFGGA      .... off
 Hybrid DFT is turned on
   Fraction HF Exchange ScalHFX         ....  0.540000
   Scaling of DF-GGA-X  ScalDFX         ....  0.460000
   Scaling of DF-GGA-C  ScalDFC         ....  1.000000
   Scaling of DF-LDA-C  ScalLDAC        ....  1.000000
   Perturbative correction              ....  0.000000


General Settings:
 Integral files         IntName         .... oxiranyl_neb2
 Hartree-Fock type      HFTyp           .... RHF
 Total Charge           Charge          ....    0
 Multiplicity           Mult            ....    1
 Number of Electrons    NEL             ....   26
 Basis Dimension        Dim             ....   66
 Nuclear Repulsion      ENuc            ....     79.2285990661 Eh

Convergence Acceleration:
 AO-DIIS                CNVDIIS         .... on
   Start iteration      DIISMaxIt       ....    12
   Startup error        DIISStart       ....  0.200000
   # of expansion vecs  DIISMaxEq       ....     5
   Bias factor          DIISBfac        ....   1.050
   Max. coefficient     DIISMaxC        ....  10.000
 MO-DIIS                CNVKDIIS        .... off
 Trust-Rad. Augm. Hess. CNVTRAH         .... auto
   Auto Start mean grad. ratio tolernc. ....  1.125000
   Auto Start start iteration           ....     1
   Auto Start num. interpolation iter.  ....    10
   Max. Number of Micro iterations      ....    24
   Max. Number of Macro iterations      .... Maxiter - #DIIS iter
   Number of Davidson start vectors     ....     2
   Converg. threshold    (grad. norm)   ....   1.000e-05
   Grad. Scal. Fac. for Micro threshold ....   0.100
   Minimum threshold for Micro iter.    ....   1.000e-02
   NR start threshold (gradient norm)   ....   1.000e-04
   Initial trust radius                 ....   0.400
   Minimum AH scaling param. (alpha)    ....   1.000
   Maximum AH scaling param. (alpha)    .... 1000.000
   Quad. conv. algorithm                .... NR
   White noise on init. David. guess    .... on
   Maximum white noise                  ....   0.010
   Pseudo random numbers                .... off
   Inactive MOs                         .... canonical
   Orbital update algorithm             .... Taylor
   Preconditioner                       .... Diag
   Full preconditioner red. dimension   ....   250
 SOSCF                 CNVSOSCF           .... on
   Start iteration     SOSCFMaxIt         ....   150
   Startup grad/error  SOSCFStart         ....  0.003300
   Hessian update      SOSCFHessUp        .... L-BFGS
   Autom. constraints  SOSCFAutoConstrain .... off
 Level Shifting         CNVShift        .... on
   Level shift para.    LevelShift      ....    0.2500
   Turn off err/grad.   ShiftErr        ....    0.0010
 Zerner damping         CNVZerner       .... off
 Static damping         CNVDamp         .... on
   Fraction old density DampFac         ....    0.7000
   Max. Damping (<1)    DampMax         ....    0.9800
   Min. Damping (>=0)   DampMin         ....    0.0000
   Turn off err/grad.   DampErr         ....    0.1000

SCF Procedure:
 Maximum # iterations   MaxIter         ....   300
 SCF integral mode      SCFMode         .... Direct
   Integral package                     .... SHARK and LIBINT hybrid scheme
 Reset frequency        DirectResetFreq ....    20
 Integral Threshold     Thresh          ....  2.500e-11 Eh
 Primitive CutOff       TCut            ....  2.500e-12 Eh

Convergence Tolerance:
 Convergence Check Mode ConvCheckMode   .... Total+1el-Energy
 Convergence forced     ConvForced      .... 0
 Energy Change          TolE            ....  1.000e-08 Eh
 1-El. energy change                    ....  1.000e-05 Eh
 Orbital Gradient       TolG            ....  1.000e-05
 Orbital Rotation angle TolX            ....  1.000e-05
 DIIS Error             TolErr          ....  5.000e-07

---------------------
INITIAL GUESS: MOREAD
---------------------
Guess MOs are being read from file: oxiranyl_neb2.gbw
Input Geometry matches current geometry (good)
Input basis set matches current basis set (good)
Occupation numbers will be reassigned to an Aufbau configuration
MOs were renormalized
MOs were reorthogonalized (Cholesky)
                      ------------------
                      INITIAL GUESS DONE (   0.0 sec)
                      ------------------
             **** ENERGY FILE WAS UPDATED (oxiranyl_neb2.en.tmp) ****
Finished Guess after   0.0 sec
Maximum memory used throughout the entire GUESS-calculation: 4.4 MB

-------------------------------------------------------------------------------------------
                                      ORCA LEAN-SCF
                              memory conserving SCF solver
-------------------------------------------------------------------------------------------

----------------------------------------D-I-I-S--------------------------------------------
Iteration    Energy (Eh)           Delta-E    RMSDP     MaxDP     DIISErr   Damp  Time(sec)
-------------------------------------------------------------------------------------------
               ***  Starting incremental Fock matrix formation  ***
                              *** Initializing SOSCF ***
---------------------------------------S-O-S-C-F--------------------------------------
Iteration    Energy (Eh)           Delta-E    RMSDP     MaxDP     MaxGrad    Time(sec)
--------------------------------------------------------------------------------------
    1    -160.4452002205507597     0.00e+00  5.60e-07  5.75e-06  1.88e-06     0.2
               *** Restarting incremental Fock matrix formation ***
    2    -160.4452002208638532    -3.13e-10  6.81e-07  8.32e-06  3.05e-06     0.2
    3    -160.4452002211888271    -3.25e-10  1.20e-06  1.35e-05  1.96e-06     0.1
                 **** Energy Check signals convergence ****

               *****************************************************
               *                     SUCCESS                       *
               *           SCF CONVERGED AFTER   3 CYCLES          *
               *****************************************************

             **** ENERGY FILE WAS UPDATED (oxiranyl_neb2.en.tmp) ****

----------------
TOTAL SCF ENERGY
----------------

Total Energy       :       -160.44520022118678 Eh           -4365.93586 eV

Components:
Nuclear Repulsion  :         79.22859906606551 Eh            2155.91979 eV
Electronic Energy  :       -239.67379928725228 Eh           -6521.85564 eV
One Electron Energy:       -375.48897583139996 Eh          -10217.57448 eV
Two Electron Energy:        135.81517654414768 Eh            3695.71884 eV

Virial components:
Potential Energy   :       -319.53137116305123 Eh           -8694.89065 eV
Kinetic Energy     :        159.08617094186445 Eh            4328.95479 eV
Virial Ratio       :          2.00854272418071

DFT components:
N(Alpha)           :       12.999930760300 electrons
N(Beta)            :       12.999930760300 electrons
N(Total)           :       25.999861520599 electrons
E(XC)              :      -10.764196549108 Eh       

---------------
SCF CONVERGENCE
---------------

  Last Energy change         ...    3.2497e-10  Tolerance :   1.0000e-08
  Last MAX-Density change    ...    1.3489e-05  Tolerance :   1.0000e-07
  Last RMS-Density change    ...    1.1986e-06  Tolerance :   5.0000e-09
  Last DIIS Error            ...    6.2864e-06  Tolerance :   5.0000e-07
  Last Orbital Gradient      ...    1.9622e-06  Tolerance :   1.0000e-05
  Last Orbital Rotation      ...    2.3479e-05  Tolerance :   1.0000e-05


----------------
ORBITAL ENERGIES
----------------

  NO   OCC          E(Eh)            E(eV) 
   0   2.0000     -19.532529      -531.5071 
   1   2.0000     -10.592093      -288.2255 
   2   2.0000     -10.575752      -287.7809 
   3   2.0000      -2.119167       -57.6655 
   4   2.0000      -1.026127       -27.9223 
   5   2.0000      -0.782492       -21.2927 
   6   2.0000      -0.620001       -16.8711 
   7   2.0000      -0.514721       -14.0063 
   8   2.0000      -0.475989       -12.9523 
   9   2.0000      -0.419816       -11.4238 
  10   2.0000      -0.303194        -8.2503 
  11   2.0000      -0.285199        -7.7607 
  12   2.0000      -0.263316        -7.1652 
  13   0.0000      -0.052194        -1.4203 
  14   0.0000      -0.013691        -0.3725 
  15   0.0000       0.063350         1.7238 
  16   0.0000       0.093645         2.5482 
  17   0.0000       0.127183         3.4608 
  18   0.0000       0.148780         4.0485 
  19   0.0000       0.168657         4.5894 
  20   0.0000       0.207023         5.6334 
  21   0.0000       0.220125         5.9899 
  22   0.0000       0.295604         8.0438 
  23   0.0000       0.333990         9.0883 
*Only the first 10 virtual orbitals were printed.
-------
TIMINGS
-------

Total SCF time: 0 days 0 hours 0 min 0 sec 

Total time                  ....       0.670 sec
Sum of individual times     ....       0.509 sec  ( 76.0%)

SCF preparation             ....       0.007 sec  (  1.1%)
Fock matrix formation       ....       0.497 sec  ( 74.3%)
  Startup                   ....       0.000 sec  (  0.1% of F)
  Coulomb+Exchange Fock     ....       0.186 sec  ( 37.4% of F)
  XC integration            ....       0.456 sec  ( 91.8% of F)
    Basis function eval.    ....       0.085 sec  ( 18.6% of XC)
    Density eval.           ....       0.138 sec  ( 30.3% of XC)
    XC-Functional eval.     ....       0.042 sec  (  9.2% of XC)
    XC-Potential eval.      ....       0.177 sec  ( 38.7% of XC)
Diagonalization             ....       0.000 sec  (  0.0%)
Density matrix formation    ....       0.001 sec  (  0.1%)
Total Energy calculation    ....       0.001 sec  (  0.2%)
Population analysis         ....       0.000 sec  (  0.0%)
Orbital Transformation      ....       0.001 sec  (  0.1%)
Orbital Orthonormalization  ....       0.000 sec  (  0.0%)
DIIS solution               ....       0.001 sec  (  0.1%)
SOSCF solution              ....       0.002 sec  (  0.3%)
Finished LeanSCF after   0.7 sec

Maximum memory used throughout the entire LEANSCF-calculation: 7.0 MB

-------------------------   --------------------
FINAL SINGLE POINT ENERGY      -160.445200221187
-------------------------   --------------------

------------------------------------------------------------------------------
                         ORCA SCF GRADIENT CALCULATION
------------------------------------------------------------------------------

Nuc. rep. gradient        (SHARK) ... done (  0.0 sec)
HCore & Overlap gradient  (SHARK) ... done (  0.0 sec)
Two-electron gradient     (SHARK) ... done (  0.2 sec)
XC gradient                       ... done (  0.4 sec)

------------------
CARTESIAN GRADIENT
------------------

   1   Li  :   -0.000685377   -0.001162008   -0.001434395
   2   C   :    0.000116064    0.000938433    0.000024547
   3   C   :    0.000066271   -0.000190651   -0.000096879
   4   O   :    0.000150749    0.000701263    0.001327176
   5   H   :    0.000005821    0.000150333    0.000100683
   6   H   :   -0.001027090   -0.000429524   -0.000084877
   7   H   :    0.001373562   -0.000007845    0.000163745

Difference to translation invariance:
           :    0.0000000000   -0.0000000000    0.0000000000

Difference to rotation invariance:
           :    0.0010229201    0.0009747504    0.0005347244

Norm of the Cartesian gradient     ...    0.0032079847
RMS gradient                       ...    0.0007000396
MAX gradient                       ...    0.0014343950

-------
TIMINGS
-------

Total SCF gradient time     ....        0.622 sec

Densities                   ....       0.000 sec  (  0.0%)
One electron gradient       ....       0.005 sec  (  0.8%)
Two electron gradient       ....       0.237 sec  ( 38.1%)
XC gradient                 ....       0.380 sec  ( 61.1%)

Maximum memory used throughout the entire SCFGRAD-calculation: 12.9 MB
------------------------------------------------------------------------------
                         ORCA GEOMETRY RELAXATION STEP
------------------------------------------------------------------------------

Reading the OPT-File                    .... done
Getting information on internals        .... done
Copying old internal coords+grads       .... done
Making the new internal coordinates     .... (2022 redundants) done
Validating the new internal coordinates .... (2022 redundants) done
Calculating the B-matrix                .... done
Calculating the G,G- and P matrices     .... done
Transforming gradient to internals      .... done
Projecting the internal gradient        .... done
Number of atoms                         ....   7
Number of internal coordinates          ....  45
Current Energy                          ....  -160.445200221 Eh
Current gradient norm                   ....     0.003207985 Eh/bohr
Maximum allowed component of the step   ....  0.300
Current trust radius                    ....  0.100
Evaluating the initial hessian          ....  (read) 
(Reading Exact Hessian)...  
InHessName: oxiranyl_neb2.appr.hess	The file <oxiranyl_neb2.appr.hess> is opened as a .hess file
done
done
Projecting the Hessian                  .... done
Diagonalizing the Hessian               .... done
Dimension of the hessian                ....  45
Lowest eigenvalues of the Hessian:
 -0.026895577  0.022496814  0.042096802  0.065295236  0.117988693
Hessian has   1 negative eigenvalues
Taking P-RFO step
Searching for lambda that maximizes along the lowest mode
TS mode is mode number   0 with eigenvalue  -0.02689558 and components:
   1.   -0.09109224
   2.    0.23937447
   3.    0.06434591
   4.    0.06902741
   5.   -0.33136553
   6.   -0.01991328
   7.    0.00524549
   8.   -0.01281421
   9.   -0.07727671
  10.   -0.08989300
  11.   -0.00827200
  12.   -0.02961519
  13.   -0.01704790
  14.   -0.19714907
  15.    0.11357231
  16.   -0.26084003
  17.   -0.08001014
  18.   -0.10530031
  19.   -0.12219527
  20.   -0.00672396
  21.   -0.06201140
  22.    0.00436428
  23.    0.24984824
  24.    0.10549444
  25.    0.00014713
  26.    0.10962534
  27.   -0.14480677
  28.   -0.05952415
  29.   -0.20433093
  30.    0.13713536
  31.    0.30523682
  32.   -0.13067861
  33.    0.26781397
  34.   -0.00291571
  35.    0.17699774
  36.    0.12823908
  37.   -0.26781397
  38.   -0.13777904
  39.    0.03921870
  40.    0.13857809
  41.    0.26489826
  42.   -0.03892413
  43.    0.05433394
  44.   -0.17047142
  45.    0.16775168

Lambda that maximizes along the TS mode:       0.00000000
Searching for lambda that minimizes along all other modes
In cycle   1: lambdaN =  -0.00006668   step =   0.00006668
In cycle   2: lambdaN =  -0.00006668   step =   0.00000000
Lambda that minimizes along all other modes:  -0.00006668
The final length of the internal step   ....       0.0354
Converting the step to Cartesian space:
 Initial RMS(Int)=    0.0052736642
Transforming coordinates:
 Iter   0:  RMS(Cart)=    0.0050011862 RMS(Int)=    0.0052665417
done
Storing new coordinates                 .... done

                                .--------------------.
          ----------------------|Geometry convergence|-------------------------
          Item                value                   Tolerance       Converged
          ---------------------------------------------------------------------
          RMS gradient        0.0003396325            0.0001000000      NO
          MAX gradient        0.0007807778            0.0003000000      NO
          RMS step            0.0052736642            0.0020000000      NO
          MAX step            0.0133946120            0.0040000000      NO
          -------------------------------------------------------------------------
          ........................................................
          Max(Bonds)      0.0029      Max(Angles)    0.45
          Max(Dihed)        0.77      Max(Improp)    0.00
          ---------------------------------------------------------------------

The optimization has not yet converged - more geometry cycles are needed


    ---------------------------------------------------------------------------
                         Redundant Internal Coordinates
                            (Angstroem and degrees)

        Definition                    Value    dE/dq     Step     New-Value  comp.(TS mode)
    ----------------------------------------------------------------------------
     1. B(C   1,Li  0)                2.0950 -0.000003 -0.0013    2.0937   
     2. B(C   2,Li  0)                2.3374 -0.000381  0.0029    2.3403   
     3. B(C   2,C   1)                1.4811  0.000240 -0.0001    1.4810   
     4. B(O   3,C   2)                1.3724  0.000109 -0.0002    1.3722   
     5. B(O   3,C   1)                2.2379  0.000460 -0.0012    2.2367          0.33
     6. B(O   3,Li  0)                1.7291  0.000106 -0.0000    1.7291   
     7. B(H   4,C   1)                1.1088  0.000079 -0.0003    1.1086   
     8. B(H   5,C   2)                1.1177  0.000590 -0.0010    1.1167   
     9. B(H   6,C   2)                1.1299 -0.000594  0.0012    1.1311   
    10. A(C   1,Li  0,O   3)           70.90  0.000143   -0.01     70.89   
    11. A(C   1,Li  0,C   2)           38.55  0.000108   -0.04     38.52   
    12. A(C   2,Li  0,O   3)           35.63  0.000117   -0.07     35.56   
    13. A(C   2,C   1,H   4)          114.02  0.000134   -0.12    113.90   
    14. A(Li  0,C   1,H   4)          157.34  0.000183   -0.29    157.05   
    15. A(Li  0,C   1,C   2)           79.61 -0.000200    0.17     79.78   
    16. A(C   1,C   2,O   3)          103.24  0.000110   -0.06    103.18          0.26
    17. A(Li  0,C   2,O   3)           47.22  0.000167   -0.10     47.12   
    18. A(Li  0,C   2,C   1)           61.84  0.000092   -0.14     61.70   
    19. A(Li  0,C   2,H   5)          150.62  0.000481   -0.39    150.22   
    20. A(C   1,C   2,H   5)          114.52  0.000078   -0.14    114.39   
    21. A(O   3,C   2,H   5)          113.52  0.000067    0.06    113.57   
    22. A(Li  0,C   2,H   6)          105.57 -0.000759    0.45    106.02   
    23. A(C   1,C   2,H   6)          105.32 -0.000315    0.31    105.63   
    24. A(H   5,C   2,H   6)          103.41  0.000273   -0.04    103.37   
    25. A(O   3,C   2,H   6)          116.95 -0.000256   -0.11    116.84   
    26. A(Li  0,O   3,C   2)           97.14 -0.000284    0.17     97.32   
    27. D(C   2,C   1,Li  0,O   3)    -18.99 -0.000229    0.27    -18.71   
    28. D(H   4,C   1,Li  0,C   2)    129.42  0.000147   -0.37    129.05   
    29. D(H   4,C   1,Li  0,O   3)    110.43 -0.000083   -0.10    110.34   
    30. D(H   5,C   2,Li  0,C   1)    -90.50 -0.000076    0.33    -90.17   
    31. D(O   3,C   2,C   1,H   4)   -137.53  0.000146   -0.03   -137.56          0.31
    32. D(H   5,C   2,Li  0,O   3)     57.64 -0.000419    0.77     58.41   
    33. D(O   3,C   2,Li  0,C   1)   -148.15  0.000343   -0.43   -148.58          0.27
    34. D(H   6,C   2,Li  0,O   3)   -112.53 -0.000310    0.54   -111.99   
    35. D(Li  0,C   2,C   1,H   4)   -160.98 -0.000172    0.33   -160.66   
    36. D(O   3,C   2,C   1,Li  0)     23.45  0.000318   -0.35     23.10   
    37. D(C   1,C   2,Li  0,O   3)    148.15 -0.000343    0.43    148.58          0.27
    38. D(H   5,C   2,C   1,Li  0)    147.36  0.000525   -0.41    146.96   
    39. D(H   5,C   2,C   1,H   4)    -13.62  0.000353   -0.08    -13.70   
    40. D(H   6,C   2,C   1,Li  0)    -99.72  0.000699   -0.34   -100.06   
    41. D(H   6,C   2,Li  0,C   1)     99.32  0.000033    0.10     99.43          0.26
    42. D(Li  0,O   3,C   2,H   6)     86.54 -0.000781    0.71     87.26   
    43. D(Li  0,O   3,C   2,H   5)   -153.13 -0.000553    0.61   -152.51   
    44. D(Li  0,O   3,C   2,C   1)    -28.55 -0.000341    0.43    -28.12   
    45. D(C   2,O   3,Li  0,C   1)     20.37  0.000237   -0.27     20.10   
    ----------------------------------------------------------------------------

Geometry step timings:
Preparation and reading OPT file:      0.000 s ( 0.096 %)
Internal coordinates            :      0.000 s ( 0.091 %)
B/P matrices and projection     :      0.000 s ( 0.772 %)
Hessian update/contruction      :      0.018 s (96.388 %)
Making the step                 :      0.000 s ( 0.911 %)
Converting the step to Cartesian:      0.000 s ( 0.165 %)
Storing new data                :      0.000 s ( 0.442 %)
Checking convergence            :      0.000 s ( 0.176 %)
Final printing                  :      0.000 s ( 0.959 %)
Total time                      :      0.019 s

Time for energy+gradient        :      1.583 s
Time for complete geometry iter :      1.641 s

         *************************************************************
         *                GEOMETRY OPTIMIZATION CYCLE   2            *
         *************************************************************
---------------------------------
CARTESIAN COORDINATES (ANGSTROEM)
---------------------------------
  Li     1.723380   -0.892663    0.370644
  C      0.599238    0.664724   -0.462654
  C     -0.487867   -0.186576    0.072845
  O      0.136914   -0.908951    1.058095
  H      0.294330    1.712490   -0.657928
  H     -1.381615    0.378547    0.431937
  H     -0.884380   -0.767571   -0.812938

----------------------------
CARTESIAN COORDINATES (A.U.)
----------------------------
  NO LB      ZA    FRAG     MASS         X           Y           Z
   0 Li    3.0000    0     6.941    3.256716   -1.686888    0.700417
   1 C     6.0000    0    12.011    1.132396    1.256146   -0.874290
   2 C     6.0000    0    12.011   -0.921936   -0.352577    0.137656
   3 O     8.0000    0    15.999    0.258731   -1.717668    1.999509
   4 H     1.0000    0     1.008    0.556202    3.236137   -1.243304
   5 H     1.0000    0     1.008   -2.610874    0.715350    0.816243
   6 H     1.0000    0     1.008   -1.671235   -1.450499   -1.536231

--------------------------------
INTERNAL COORDINATES (ANGSTROEM)
--------------------------------
 Li     0   0   0     0.000000000000     0.00000000     0.00000000
 C      1   0   0     2.093689431991     0.00000000     0.00000000
 C      2   1   0     1.480968742919    79.78332853     0.00000000
 O      3   2   1     1.372186671663   103.17994644    23.09993758
 H      2   1   3     1.108564231082   157.04912048   129.04943627
 H      3   2   1     1.116734197436   114.38442952   146.95708249
 H      3   2   1     1.131100544379   105.62988598   259.93647730

---------------------------
INTERNAL COORDINATES (A.U.)
---------------------------
 Li     0   0   0     0.000000000000     0.00000000     0.00000000
 C      1   0   0     3.956499635949     0.00000000     0.00000000
 C      2   1   0     2.798625337015    79.78332853     0.00000000
 O      3   2   1     2.593057014061   103.17994644    23.09993758
 H      2   1   3     2.094882798606   157.04912048   129.04943627
 H      3   2   1     2.110321797538   114.38442952   146.95708249
 H      3   2   1     2.137470258805   105.62988598   259.93647730

------------------------------------------------------------------------------
                   ___                                                        
                  /   \      - P O W E R E D   B Y -                         
                 /     \                                                     
                 |  |  |   _    _      __       _____    __    __             
                 |  |  |  | |  | |    /  \     |  _  \  |  |  /  |          
                  \  \/   | |  | |   /    \    | | | |  |  | /  /          
                 / \  \   | |__| |  /  /\  \   | |_| |  |  |/  /          
                |  |  |   |  __  | /  /__\  \  |    /   |      \           
                |  |  |   | |  | | |   __   |  |    \   |  |\   \          
                \     /   | |  | | |  |  |  |  | |\  \  |  | \   \       
                 \___/    |_|  |_| |__|  |__|  |_| \__\ |__|  \__/        
                                                                              
                      - O R C A' S   B I G   F R I E N D -                    
                                      &                                       
                       - I N T E G R A L  F E E D E R -                       
                                                                              
 v1 FN, 2020, v2 2021, v3 2022-2024                                           
------------------------------------------------------------------------------


----------------------
SHARK INTEGRAL PACKAGE
----------------------

Number of atoms                             ...      7
Number of basis functions                   ...     66
Number of shells                            ...     32
Maximum angular momentum                    ...      2
Integral batch strategy                     ... SHARK/LIBINT Hybrid
RI-J (if used) integral strategy            ... SPLIT-RIJ (Revised 2003 algorithm where possible)
Printlevel                                  ...      1
Contraction scheme used                     ... SEGMENTED contraction
Prescreening option                         ... SCHWARTZ
   Thresh                                   ... 2.500e-11
   Tcut                                     ... 2.500e-12
   Tpresel                                  ... 2.500e-12 
Coulomb Range Separation                    ... NOT USED
Exchange Range Separation                   ... NOT USED
Multipole approximations                    ... NOT USED
Finite Nucleus Model                        ... NOT USED
CABS basis                                  ... NOT available
Auxiliary Coulomb fitting basis             ... NOT available
Auxiliary J/K fitting basis                 ... NOT available
Auxiliary Correlation fitting basis         ... NOT available
Auxiliary 'external' fitting basis          ... NOT available

Checking pre-screening integrals            ... done (  0.0 sec) Dimension = 32
   => SHARK Basis and OBASIS are compatible. Storing Pre-screening
Shell pair information
Shell pair cut-off parameter TPreSel        ...   2.5e-12
Total number of shell pairs                 ...       528
Shell pairs after pre-screening             ...       527
Total number of primitive shell pairs       ...      1950
Primitive shell pairs kept                  ...      1661
          la=0 lb=0:    170 shell pairs
          la=1 lb=0:    198 shell pairs
          la=1 lb=1:     66 shell pairs
          la=2 lb=0:     54 shell pairs
          la=2 lb=1:     33 shell pairs
          la=2 lb=2:      6 shell pairs

Checking whether 4 symmetric matrices of dimension 66 fit in memory
:Max Core in MB      =   4000.00
 MB in use           =      1.78
 MB left             =   3998.22
 MB needed           =      0.07
 Data fit in memory  = YES
Calculating Nuclear repulsion               ... done (  0.0 sec) ENN=     79.236336800310 Eh

Diagonalization of the overlap matrix:
Smallest eigenvalue                        ... 4.230e-03
Time for diagonalization                   ...    0.000 sec
Threshold for overlap eigenvalues          ... 1.000e-07
Number of eigenvalues below threshold      ... 0
Time for construction of square roots      ...    0.000 sec
Total time needed                          ...    0.001 sec

-------------------
DFT GRID GENERATION
-------------------

General Integration Accuracy     IntAcc      ... 4.388
Radial Grid Type                 RadialGrid  ... OptM3 with GC (2021)
Angular Grid (max. ang.)         AngularGrid ... 4 (Lebedev-302)
Angular grid pruning method      GridPruning ... 4 (adaptive)
Weight generation scheme         WeightScheme... mBecke (2022)
Basis function cutoff            BFCut       ... 1.0000e-11
Integration weight cutoff        WCut        ... 1.0000e-14
Partially contracted basis set               ... off
Rotationally invariant grid construction     ... off
Angular grids for H and He will be reduced by one unit

Total number of grid points                  ...    33985
Total number of batches                      ...      534
Average number of points per batch           ...       63
Average number of grid points per atom       ...     4855
Grids setup in   0.1 sec
Initializing property integral containers    ... done (  0.0 sec)

SHARK setup successfully completed in   0.1 seconds

Maximum memory used throughout the entire STARTUP-calculation: 12.6 MB
Occupation numbers will be reassigned to an Aufbau configuration
             **** ENERGY FILE WAS UPDATED (oxiranyl_neb2.en.tmp) ****
Finished Guess after   0.0 sec
Maximum memory used throughout the entire GUESS-calculation: 4.4 MB
----------------------------------------D-I-I-S--------------------------------------------
Iteration    Energy (Eh)           Delta-E    RMSDP     MaxDP     DIISErr   Damp  Time(sec)
-------------------------------------------------------------------------------------------
               ***  Starting incremental Fock matrix formation  ***
                              *** Initializing SOSCF ***
---------------------------------------S-O-S-C-F--------------------------------------
Iteration    Energy (Eh)           Delta-E    RMSDP     MaxDP     MaxGrad    Time(sec)
--------------------------------------------------------------------------------------
    1    -160.4452509889751184     0.00e+00  1.11e-04  1.43e-03  1.20e-04     0.2
               *** Restarting incremental Fock matrix formation ***
    2    -160.4452596981080035    -8.71e-06  5.63e-05  4.25e-04  1.90e-04     0.2
    3    -160.4452616903719786    -1.99e-06  3.83e-05  3.33e-04  7.57e-05     0.2
    4    -160.4452619572270464    -2.67e-07  1.65e-05  2.52e-04  8.44e-05     0.2
    5    -160.4452620402223317    -8.30e-08  7.89e-06  7.62e-05  4.90e-05     0.2
    6    -160.4452620746440914    -3.44e-08  3.84e-06  5.77e-05  1.15e-05     0.2
    7    -160.4452620796633653    -5.02e-09  1.85e-06  1.93e-05  5.70e-06     0.2
                 **** Energy Check signals convergence ****

               *****************************************************
               *                     SUCCESS                       *
               *           SCF CONVERGED AFTER   7 CYCLES          *
               *****************************************************

             **** ENERGY FILE WAS UPDATED (oxiranyl_neb2.en.tmp) ****

----------------
TOTAL SCF ENERGY
----------------

Total Energy       :       -160.44526208125259 Eh           -4365.93754 eV

Components:
Nuclear Repulsion  :         79.23633680031031 Eh            2156.13034 eV
Electronic Energy  :       -239.68159888156291 Eh           -6522.06788 eV
One Electron Energy:       -375.50449997200553 Eh          -10217.99692 eV
Two Electron Energy:        135.82290109044263 Eh            3695.92904 eV

Virial components:
Potential Energy   :       -319.53256391875783 Eh           -8694.92311 eV
Kinetic Energy     :        159.08730183750524 Eh            4328.98556 eV
Virial Ratio       :          2.00853594364894

DFT components:
N(Alpha)           :       12.999930174188 electrons
N(Beta)            :       12.999930174188 electrons
N(Total)           :       25.999860348375 electrons
E(XC)              :      -10.764290121661 Eh       

---------------
SCF CONVERGENCE
---------------

  Last Energy change         ...    5.0193e-09  Tolerance :   1.0000e-08
  Last MAX-Density change    ...    1.9337e-05  Tolerance :   1.0000e-07
  Last RMS-Density change    ...    1.8521e-06  Tolerance :   5.0000e-09
  Last DIIS Error            ...    9.9948e-04  Tolerance :   5.0000e-07
  Last Orbital Gradient      ...    5.7034e-06  Tolerance :   1.0000e-05
  Last Orbital Rotation      ...    3.7881e-05  Tolerance :   1.0000e-05


Total SCF time: 0 days 0 hours 0 min 1 sec 
Finished LeanSCF after   1.3 sec

Maximum memory used throughout the entire LEANSCF-calculation: 7.0 MB

-------------------------   --------------------
FINAL SINGLE POINT ENERGY      -160.445262081253
-------------------------   --------------------

------------------------------------------------------------------------------
                         ORCA SCF GRADIENT CALCULATION
------------------------------------------------------------------------------

Nuc. rep. gradient        (SHARK) ... done (  0.0 sec)
HCore & Overlap gradient  (SHARK) ... done (  0.0 sec)
Two-electron gradient     (SHARK) ... done (  0.2 sec)
XC gradient                       ... done (  0.4 sec)

------------------
CARTESIAN GRADIENT
------------------

   1   Li  :   -0.000648847   -0.001100721   -0.001382212
   2   C   :    0.000145357    0.000871807    0.000095337
   3   C   :    0.000133818    0.000901437    0.000821770
   4   O   :    0.000041264    0.000633264    0.000983035
   5   H   :   -0.000035882   -0.000057718    0.000153218
   6   H   :   -0.000563531   -0.000670898   -0.000385204
   7   H   :    0.000927821   -0.000577172   -0.000285944

Difference to translation invariance:
           :    0.0000000000    0.0000000000   -0.0000000000

Difference to rotation invariance:
           :    0.0008402265    0.0010066400    0.0001253714

Norm of the Cartesian gradient     ...    0.0030705282
RMS gradient                       ...    0.0006700442
MAX gradient                       ...    0.0013822123

-------
TIMINGS
-------

Total SCF gradient time     ....        0.622 sec

Densities                   ....       0.000 sec  (  0.0%)
One electron gradient       ....       0.005 sec  (  0.8%)
Two electron gradient       ....       0.237 sec  ( 38.1%)
XC gradient                 ....       0.380 sec  ( 61.1%)

Maximum memory used throughout the entire SCFGRAD-calculation: 12.9 MB
------------------------------------------------------------------------------
                         ORCA GEOMETRY RELAXATION STEP
------------------------------------------------------------------------------

Reading the OPT-File                    .... done
Getting information on internals        .... done
Copying old internal coords+grads       .... done
Making the new internal coordinates     .... (2022 redundants) done
Validating the new internal coordinates .... (2022 redundants) done
Calculating the B-matrix                .... done
Calculating the G,G- and P matrices     .... done
Transforming gradient to internals      .... done
Projecting the internal gradient        .... done
Number of atoms                         ....   7
Number of internal coordinates          ....  45
Current Energy                          ....  -160.445262081 Eh
Current gradient norm                   ....     0.003070528 Eh/bohr
Maximum allowed component of the step   ....  0.300
Current trust radius                    ....  0.100
Updating the Hessian (Bofill)           .... done
Diagonalizing the Hessian               .... done
Dimension of the hessian                ....  45
Lowest eigenvalues of the Hessian:
 -0.026926807  0.004671880  0.025422502  0.059433568  0.118056498
Hessian has   1 negative eigenvalues
Taking P-RFO step
Searching for lambda that maximizes along the lowest mode
TS mode is mode number   0 with eigenvalue  -0.02692681 and components:
   1.   -0.09267136
   2.    0.24326060
   3.    0.06432125
   4.    0.06885890
   5.   -0.33276700
   6.   -0.01994590
   7.    0.00524682
   8.   -0.01278523
   9.   -0.07731054
  10.   -0.08999944
  11.   -0.00867862
  12.   -0.03048374
  13.   -0.01810552
  14.   -0.20096435
  15.    0.11565476
  16.   -0.26158963
  17.   -0.08125977
  18.   -0.10697615
  19.   -0.12752952
  20.   -0.00854145
  21.   -0.06166602
  22.    0.01055207
  23.    0.25328429
  24.    0.10486674
  25.   -0.00029410
  26.    0.11174351
  27.   -0.14138631
  28.   -0.06319537
  29.   -0.20458168
  30.    0.14105466
  31.    0.30489885
  32.   -0.12131161
  33.    0.26236628
  34.    0.00307949
  35.    0.18103603
  36.    0.12386282
  37.   -0.26236628
  38.   -0.14332177
  39.    0.03771426
  40.    0.13348096
  41.    0.26544577
  42.   -0.03008542
  43.    0.06224534
  44.   -0.16512471
  45.    0.16431710

Lambda that maximizes along the TS mode:       0.00000019
Searching for lambda that minimizes along all other modes
In cycle   1: lambdaN =  -0.00051565   step =   0.00051565
In cycle   2: lambdaN =  -0.00052130   step =   0.00000565
In cycle   3: lambdaN =  -0.00052131   step =   0.00000000
Lambda that minimizes along all other modes:  -0.00052131
Calculated stepsize too large (   0.3134 >    0.1000). Scaled with    0.3190.
The final length of the internal step   ....       0.1000
Converting the step to Cartesian space:
 Initial RMS(Int)=    0.0149071198
Transforming coordinates:
 Iter   0:  RMS(Cart)=    0.0136243906 RMS(Int)=    0.0148493726
done
Storing new coordinates                 .... done
The predicted energy change is          ....    -0.000142342
Previously predicted energy change      ....    -0.000033379
Actually observed energy change         ....    -0.000061860
Ratio of predicted to observed change   ....     1.853272762
New trust radius                        ....     0.100000000

                                .--------------------.
          ----------------------|Geometry convergence|-------------------------
          Item                value                   Tolerance       Converged
          ---------------------------------------------------------------------
          Energy change      -0.0000618601            0.0000050000      NO
          RMS gradient        0.0002978928            0.0001000000      NO
          MAX gradient        0.0007388148            0.0003000000      NO
          RMS step            0.0149071198            0.0020000000      NO
          MAX step            0.0393572188            0.0040000000      NO
          -------------------------------------------------------------------------
          ........................................................
          Max(Bonds)      0.0075      Max(Angles)    1.33
          Max(Dihed)        2.26      Max(Improp)    0.00
          ---------------------------------------------------------------------

The optimization has not yet converged - more geometry cycles are needed


    ---------------------------------------------------------------------------
                         Redundant Internal Coordinates
                            (Angstroem and degrees)

        Definition                    Value    dE/dq     Step     New-Value  comp.(TS mode)
    ----------------------------------------------------------------------------
     1. B(C   1,Li  0)                2.0937 -0.000033 -0.0033    2.0904   
     2. B(C   2,Li  0)                2.3403 -0.000366  0.0075    2.3478   
     3. B(C   2,C   1)                1.4810  0.000124  0.0001    1.4811   
     4. B(O   3,C   2)                1.3722  0.000006 -0.0003    1.3718   
     5. B(O   3,C   1)                2.2367  0.000304 -0.0019    2.2348          0.33
     6. B(O   3,Li  0)                1.7291  0.000126  0.0000    1.7291   
     7. B(H   4,C   1)                1.1086 -0.000099 -0.0000    1.1085   
     8. B(H   5,C   2)                1.1167 -0.000014  0.0002    1.1169   
     9. B(H   6,C   2)                1.1311  0.000209 -0.0001    1.1310   
    10. A(C   1,Li  0,O   3)           70.89  0.000093    0.01     70.90   
    11. A(C   1,Li  0,C   2)           38.52  0.000078   -0.08     38.44   
    12. A(C   2,Li  0,O   3)           35.56  0.000084   -0.18     35.38   
    13. A(C   2,C   1,H   4)          113.90  0.000060   -0.25    113.64   
    14. A(Li  0,C   1,H   4)          157.05  0.000221   -0.86    156.19   
    15. A(Li  0,C   1,C   2)           79.78 -0.000162    0.44     80.23   
    16. A(C   1,C   2,O   3)          103.18  0.000120   -0.11    103.07          0.26
    17. A(Li  0,C   2,O   3)           47.12  0.000165   -0.26     46.87   
    18. A(Li  0,C   2,C   1)           61.70  0.000084   -0.36     61.33   
    19. A(Li  0,C   2,H   5)          150.22  0.000522   -1.15    149.07   
    20. A(C   1,C   2,H   5)          114.38  0.000096   -0.45    113.94   
    21. A(O   3,C   2,H   5)          113.57  0.000112    0.14    113.71   
    22. A(Li  0,C   2,H   6)          106.02 -0.000739    1.33    107.34   
    23. A(C   1,C   2,H   6)          105.63 -0.000208    0.72    106.35          0.25
    24. A(H   5,C   2,H   6)          103.37  0.000204   -0.12    103.25   
    25. A(O   3,C   2,H   6)          116.84 -0.000358   -0.17    116.67   
    26. A(Li  0,O   3,C   2)           97.32 -0.000249    0.44     97.76   
    27. D(C   2,C   1,Li  0,O   3)    -18.71 -0.000194    0.80    -17.91   
    28. D(H   4,C   1,Li  0,C   2)    129.05  0.000088   -0.95    128.09   
    29. D(H   4,C   1,Li  0,O   3)    110.34 -0.000107   -0.16    110.18   
    30. D(H   5,C   2,Li  0,C   1)    -90.17 -0.000067    0.97    -89.20   
    31. D(O   3,C   2,C   1,H   4)   -137.56  0.000087   -0.07   -137.63          0.30
    32. D(H   5,C   2,Li  0,O   3)     58.41 -0.000366    2.26     60.66   
    33. D(O   3,C   2,Li  0,C   1)   -148.58  0.000299   -1.28   -149.86          0.26
    34. D(H   6,C   2,Li  0,O   3)   -111.99 -0.000154    1.38   -110.61   
    35. D(Li  0,C   2,C   1,H   4)   -160.66 -0.000199    0.94   -159.72   
    36. D(O   3,C   2,C   1,Li  0)     23.10  0.000286   -1.01     22.09   
    37. D(C   1,C   2,Li  0,O   3)    148.58 -0.000299    1.28    149.86          0.26
    38. D(H   5,C   2,C   1,Li  0)    146.96  0.000566   -1.18    145.78   
    39. D(H   5,C   2,C   1,H   4)    -13.70  0.000367   -0.24    -13.94   
    40. D(H   6,C   2,C   1,Li  0)   -100.06  0.000731   -1.10   -101.16   
    41. D(H   6,C   2,Li  0,C   1)     99.43  0.000145    0.10     99.53          0.27
    42. D(Li  0,O   3,C   2,H   6)     87.26 -0.000655    1.97     89.23   
    43. D(Li  0,O   3,C   2,H   5)   -152.51 -0.000566    1.79   -150.72   
    44. D(Li  0,O   3,C   2,C   1)    -28.12 -0.000301    1.24    -26.88   
    45. D(C   2,O   3,Li  0,C   1)     20.09  0.000203   -0.81     19.29   
    ----------------------------------------------------------------------------

Geometry step timings:
Preparation and reading OPT file:      0.000 s ( 1.789 %)
Internal coordinates            :      0.000 s ( 1.789 %)
B/P matrices and projection     :      0.000 s (12.737 %)
Hessian update/contruction      :      0.000 s (37.895 %)
Making the step                 :      0.000 s (18.000 %)
Converting the step to Cartesian:      0.000 s ( 2.105 %)
Storing new data                :      0.000 s ( 3.474 %)
Checking convergence            :      0.000 s ( 3.579 %)
Final printing                  :      0.000 s (18.632 %)
Total time                      :      0.001 s

Time for energy+gradient        :      2.238 s
Time for complete geometry iter :      2.275 s

         *************************************************************
         *                GEOMETRY OPTIMIZATION CYCLE   3            *
         *************************************************************
---------------------------------
CARTESIAN COORDINATES (ANGSTROEM)
---------------------------------
  Li     1.732584   -0.879166    0.382594
  C      0.600613    0.660052   -0.465373
  C     -0.489306   -0.189163    0.068152
  O      0.136739   -0.918033    1.047370
  H      0.294959    1.708807   -0.653885
  H     -1.374468    0.386311    0.432565
  H     -0.901122   -0.768808   -0.811422

----------------------------
CARTESIAN COORDINATES (A.U.)
----------------------------
  NO LB      ZA    FRAG     MASS         X           Y           Z
   0 Li    3.0000    0     6.941    3.274109   -1.661384    0.722998
   1 C     6.0000    0    12.011    1.134995    1.247317   -0.879427
   2 C     6.0000    0    12.011   -0.924654   -0.357466    0.128789
   3 O     8.0000    0    15.999    0.258399   -1.734831    1.979242
   4 H     1.0000    0     1.008    0.557392    3.229177   -1.235664
   5 H     1.0000    0     1.008   -2.597367    0.730022    0.817429
   6 H     1.0000    0     1.008   -1.702874   -1.452836   -1.533366

--------------------------------
INTERNAL COORDINATES (ANGSTROEM)
--------------------------------
 Li     0   0   0     0.000000000000     0.00000000     0.00000000
 C      1   0   0     2.090358461721     0.00000000     0.00000000
 C      2   1   0     1.481127145478    80.22256471     0.00000000
 O      3   2   1     1.371878352985   103.05737795    22.09201078
 H      2   1   3     1.108534220248   156.19576704   128.09878221
 H      3   2   1     1.116905554466   113.90984723   145.78948685
 H      3   2   1     1.131031459054   106.35848701   258.83488160

---------------------------
INTERNAL COORDINATES (A.U.)
---------------------------
 Li     0   0   0     0.000000000000     0.00000000     0.00000000
 C      1   0   0     3.950205014378     0.00000000     0.00000000
 C      2   1   0     2.798924674470    80.22256471     0.00000000
 O      3   2   1     2.592474376197   103.05737795    22.09201078
 H      2   1   3     2.094826086349   156.19576704   128.09878221
 H      3   2   1     2.110645615397   113.90984723   145.78948685
 H      3   2   1     2.137339706461   106.35848701   258.83488160

------------------------------------------------------------------------------
                   ___                                                        
                  /   \      - P O W E R E D   B Y -                         
                 /     \                                                     
                 |  |  |   _    _      __       _____    __    __             
                 |  |  |  | |  | |    /  \     |  _  \  |  |  /  |          
                  \  \/   | |  | |   /    \    | | | |  |  | /  /          
                 / \  \   | |__| |  /  /\  \   | |_| |  |  |/  /          
                |  |  |   |  __  | /  /__\  \  |    /   |      \           
                |  |  |   | |  | | |   __   |  |    \   |  |\   \          
                \     /   | |  | | |  |  |  |  | |\  \  |  | \   \       
                 \___/    |_|  |_| |__|  |__|  |_| \__\ |__|  \__/        
                                                                              
                      - O R C A' S   B I G   F R I E N D -                    
                                      &                                       
                       - I N T E G R A L  F E E D E R -                       
                                                                              
 v1 FN, 2020, v2 2021, v3 2022-2024                                           
------------------------------------------------------------------------------


----------------------
SHARK INTEGRAL PACKAGE
----------------------

Number of atoms                             ...      7
Number of basis functions                   ...     66
Number of shells                            ...     32
Maximum angular momentum                    ...      2
Integral batch strategy                     ... SHARK/LIBINT Hybrid
RI-J (if used) integral strategy            ... SPLIT-RIJ (Revised 2003 algorithm where possible)
Printlevel                                  ...      1
Contraction scheme used                     ... SEGMENTED contraction
Prescreening option                         ... SCHWARTZ
   Thresh                                   ... 2.500e-11
   Tcut                                     ... 2.500e-12
   Tpresel                                  ... 2.500e-12 
Coulomb Range Separation                    ... NOT USED
Exchange Range Separation                   ... NOT USED
Multipole approximations                    ... NOT USED
Finite Nucleus Model                        ... NOT USED
CABS basis                                  ... NOT available
Auxiliary Coulomb fitting basis             ... NOT available
Auxiliary J/K fitting basis                 ... NOT available
Auxiliary Correlation fitting basis         ... NOT available
Auxiliary 'external' fitting basis          ... NOT available

Checking pre-screening integrals            ... done (  0.0 sec) Dimension = 32
   => SHARK Basis and OBASIS are compatible. Storing Pre-screening
Shell pair information
Shell pair cut-off parameter TPreSel        ...   2.5e-12
Total number of shell pairs                 ...       528
Shell pairs after pre-screening             ...       527
Total number of primitive shell pairs       ...      1950
Primitive shell pairs kept                  ...      1660
          la=0 lb=0:    170 shell pairs
          la=1 lb=0:    198 shell pairs
          la=1 lb=1:     66 shell pairs
          la=2 lb=0:     54 shell pairs
          la=2 lb=1:     33 shell pairs
          la=2 lb=2:      6 shell pairs

Checking whether 4 symmetric matrices of dimension 66 fit in memory
:Max Core in MB      =   4000.00
 MB in use           =      1.78
 MB left             =   3998.22
 MB needed           =      0.07
 Data fit in memory  = YES
Calculating Nuclear repulsion               ... done (  0.0 sec) ENN=     79.240354507998 Eh

Diagonalization of the overlap matrix:
Smallest eigenvalue                        ... 4.222e-03
Time for diagonalization                   ...    0.000 sec
Threshold for overlap eigenvalues          ... 1.000e-07
Number of eigenvalues below threshold      ... 0
Time for construction of square roots      ...    0.000 sec
Total time needed                          ...    0.000 sec

-------------------
DFT GRID GENERATION
-------------------

General Integration Accuracy     IntAcc      ... 4.388
Radial Grid Type                 RadialGrid  ... OptM3 with GC (2021)
Angular Grid (max. ang.)         AngularGrid ... 4 (Lebedev-302)
Angular grid pruning method      GridPruning ... 4 (adaptive)
Weight generation scheme         WeightScheme... mBecke (2022)
Basis function cutoff            BFCut       ... 1.0000e-11
Integration weight cutoff        WCut        ... 1.0000e-14
Partially contracted basis set               ... off
Rotationally invariant grid construction     ... off
Angular grids for H and He will be reduced by one unit

Total number of grid points                  ...    33988
Total number of batches                      ...      536
Average number of points per batch           ...       63
Average number of grid points per atom       ...     4855
Grids setup in   0.1 sec
Initializing property integral containers    ... done (  0.0 sec)

SHARK setup successfully completed in   0.1 seconds

Maximum memory used throughout the entire STARTUP-calculation: 12.6 MB
Occupation numbers will be reassigned to an Aufbau configuration
             **** ENERGY FILE WAS UPDATED (oxiranyl_neb2.en.tmp) ****
Finished Guess after   0.0 sec
Maximum memory used throughout the entire GUESS-calculation: 4.4 MB
----------------------------------------D-I-I-S--------------------------------------------
Iteration    Energy (Eh)           Delta-E    RMSDP     MaxDP     DIISErr   Damp  Time(sec)
-------------------------------------------------------------------------------------------
               ***  Starting incremental Fock matrix formation  ***
                              *** Initializing SOSCF ***
---------------------------------------S-O-S-C-F--------------------------------------
Iteration    Energy (Eh)           Delta-E    RMSDP     MaxDP     MaxGrad    Time(sec)
--------------------------------------------------------------------------------------
    1    -160.4453266175769954     0.00e+00  2.74e-04  3.35e-03  3.41e-04     0.2
               *** Restarting incremental Fock matrix formation ***
    2    -160.4453903379165354    -6.37e-05  1.54e-04  1.25e-03  5.45e-04     0.2
    3    -160.4454050701800725    -1.47e-05  9.61e-05  8.07e-04  1.99e-04     0.2
    4    -160.4454068020123145    -1.73e-06  4.19e-05  6.39e-04  2.16e-04     0.2
    5    -160.4454073270478602    -5.25e-07  2.03e-05  1.79e-04  1.23e-04     0.2
    6    -160.4454075611563439    -2.34e-07  9.46e-06  1.34e-04  2.87e-05     0.2
    7    -160.4454075906733692    -2.95e-08  4.76e-06  5.31e-05  1.39e-05     0.2
    8    -160.4454076015070427    -1.08e-08  1.69e-06  1.83e-05  3.76e-06     0.2
    9    -160.4454076023106950    -8.04e-10  4.24e-07  4.08e-06  1.08e-06     0.2
                 **** Energy Check signals convergence ****

               *****************************************************
               *                     SUCCESS                       *
               *           SCF CONVERGED AFTER   9 CYCLES          *
               *****************************************************

             **** ENERGY FILE WAS UPDATED (oxiranyl_neb2.en.tmp) ****

----------------
TOTAL SCF ENERGY
----------------

Total Energy       :       -160.44540760245013 Eh           -4365.94150 eV

Components:
Nuclear Repulsion  :         79.24035450799845 Eh            2156.23967 eV
Electronic Energy  :       -239.68576211044856 Eh           -6522.18117 eV
One Electron Energy:       -375.51301075636678 Eh          -10218.22851 eV
Two Electron Energy:        135.82724864591822 Eh            3696.04734 eV

Virial components:
Potential Energy   :       -319.53358169440571 Eh           -8694.95080 eV
Kinetic Energy     :        159.08817409195555 Eh            4329.00930 eV
Virial Ratio       :          2.00853132873164

DFT components:
N(Alpha)           :       12.999932243563 electrons
N(Beta)            :       12.999932243563 electrons
N(Total)           :       25.999864487125 electrons
E(XC)              :      -10.764318417760 Eh       

---------------
SCF CONVERGENCE
---------------

  Last Energy change         ...    8.0365e-10  Tolerance :   1.0000e-08
  Last MAX-Density change    ...    4.0813e-06  Tolerance :   1.0000e-07
  Last RMS-Density change    ...    4.2365e-07  Tolerance :   5.0000e-09
  Last DIIS Error            ...    2.8281e-03  Tolerance :   5.0000e-07
  Last Orbital Gradient      ...    1.0806e-06  Tolerance :   1.0000e-05
  Last Orbital Rotation      ...    5.6428e-06  Tolerance :   1.0000e-05


Total SCF time: 0 days 0 hours 0 min 1 sec 
Finished LeanSCF after   1.6 sec

Maximum memory used throughout the entire LEANSCF-calculation: 7.1 MB

-------------------------   --------------------
FINAL SINGLE POINT ENERGY      -160.445407602450
-------------------------   --------------------

------------------------------------------------------------------------------
                         ORCA SCF GRADIENT CALCULATION
------------------------------------------------------------------------------

Nuc. rep. gradient        (SHARK) ... done (  0.0 sec)
HCore & Overlap gradient  (SHARK) ... done (  0.0 sec)
Two-electron gradient     (SHARK) ... done (  0.2 sec)
XC gradient                       ... done (  0.4 sec)

------------------
CARTESIAN GRADIENT
------------------

   1   Li  :   -0.000465354   -0.000900897   -0.001245199
   2   C   :    0.000374310    0.000378160    0.000032358
   3   C   :    0.000589038    0.001747405    0.001604494
   4   O   :   -0.000171058    0.000443082    0.000416191
   5   H   :   -0.000161405   -0.000154966    0.000318567
   6   H   :   -0.000515162   -0.000488711   -0.000767127
   7   H   :    0.000349631   -0.001024075   -0.000359283

Difference to translation invariance:
           :    0.0000000000    0.0000000000   -0.0000000000

Difference to rotation invariance:
           :    0.0003238285    0.0009482504   -0.0010157943

Norm of the Cartesian gradient     ...    0.0034323112
RMS gradient                       ...    0.0007489917
MAX gradient                       ...    0.0017474055

-------
TIMINGS
-------

Total SCF gradient time     ....        0.620 sec

Densities                   ....       0.000 sec  (  0.0%)
One electron gradient       ....       0.005 sec  (  0.8%)
Two electron gradient       ....       0.237 sec  ( 38.3%)
XC gradient                 ....       0.378 sec  ( 60.9%)

Maximum memory used throughout the entire SCFGRAD-calculation: 12.9 MB
------------------------------------------------------------------------------
                         ORCA GEOMETRY RELAXATION STEP
------------------------------------------------------------------------------

Reading the OPT-File                    .... done
Getting information on internals        .... done
Copying old internal coords+grads       .... done
Making the new internal coordinates     .... (2022 redundants) done
Validating the new internal coordinates .... (2022 redundants) done
Calculating the B-matrix                .... done
Calculating the G,G- and P matrices     .... done
Transforming gradient to internals      .... done
Projecting the internal gradient        .... done
Number of atoms                         ....   7
Number of internal coordinates          ....  45
Current Energy                          ....  -160.445407602 Eh
Current gradient norm                   ....     0.003432311 Eh/bohr
Maximum allowed component of the step   ....  0.300
Current trust radius                    ....  0.100
Updating the Hessian (Bofill)           .... done
Diagonalizing the Hessian               .... done
Dimension of the hessian                ....  45
Lowest eigenvalues of the Hessian:
 -0.026933521  0.003977455  0.025395641  0.059423393  0.118062033
Hessian has   1 negative eigenvalues
Taking P-RFO step
Searching for lambda that maximizes along the lowest mode
TS mode is mode number   0 with eigenvalue  -0.02693352 and components:
   1.    0.09216571
   2.   -0.24205601
   3.   -0.06418354
   4.   -0.06885127
   5.    0.33251407
   6.    0.01996399
   7.   -0.00524209
   8.    0.01286966
   9.    0.07707417
  10.    0.09002832
  11.    0.00858705
  12.    0.03023228
  13.    0.01781268
  14.    0.19958791
  15.   -0.11502903
  16.    0.26136898
  17.    0.08088442
  18.    0.10644197
  19.    0.12559851
  20.    0.00772520
  21.    0.06179800
  22.   -0.00849307
  23.   -0.25225571
  24.   -0.10490229
  25.    0.00022532
  26.   -0.11111669
  27.    0.14254458
  28.    0.06193331
  29.    0.20447789
  30.   -0.13961445
  31.   -0.30489503
  32.    0.12462028
  33.   -0.26423473
  34.   -0.00117091
  35.   -0.17956255
  36.   -0.12533248
  37.    0.26423473
  38.    0.14139237
  39.   -0.03817018
  40.   -0.13524474
  41.   -0.26540564
  42.    0.03296795
  43.   -0.05935666
  44.    0.16692908
  45.   -0.16548819

Lambda that maximizes along the TS mode:       0.00000000
Searching for lambda that minimizes along all other modes
In cycle   1: lambdaN =  -0.00038511   step =   0.00038511
In cycle   2: lambdaN =  -0.00038834   step =   0.00000323
In cycle   3: lambdaN =  -0.00038834   step =   0.00000000
Lambda that minimizes along all other modes:  -0.00038834
Calculated stepsize too large (   0.2928 >    0.1000). Scaled with    0.3416.
The final length of the internal step   ....       0.1000
Converting the step to Cartesian space:
 Initial RMS(Int)=    0.0149071198
Transforming coordinates:
 Iter   0:  RMS(Cart)=    0.0137686880 RMS(Int)=    0.0148533196
done
Storing new coordinates                 .... done
The predicted energy change is          ....    -0.000111926
Previously predicted energy change      ....    -0.000142342
Actually observed energy change         ....    -0.000145521
Ratio of predicted to observed change   ....     1.022337801
New trust radius                        ....     0.150000000

                                .--------------------.
          ----------------------|Geometry convergence|-------------------------
          Item                value                   Tolerance       Converged
          ---------------------------------------------------------------------
          Energy change      -0.0001455212            0.0000050000      NO
          RMS gradient        0.0002978887            0.0001000000      NO
          MAX gradient        0.0007304500            0.0003000000      NO
          RMS step            0.0149071198            0.0020000000      NO
          MAX step            0.0385548163            0.0040000000      NO
          -------------------------------------------------------------------------
          ........................................................
          Max(Bonds)      0.0077      Max(Angles)    1.38
          Max(Dihed)        2.21      Max(Improp)    0.00
          ---------------------------------------------------------------------

The optimization has not yet converged - more geometry cycles are needed


    ---------------------------------------------------------------------------
                         Redundant Internal Coordinates
                            (Angstroem and degrees)

        Definition                    Value    dE/dq     Step     New-Value  comp.(TS mode)
    ----------------------------------------------------------------------------
     1. B(C   1,Li  0)                2.0904 -0.000128 -0.0032    2.0871   
     2. B(C   2,Li  0)                2.3477 -0.000247  0.0077    2.3554   
     3. B(C   2,C   1)                1.4811 -0.000040  0.0006    1.4817   
     4. B(O   3,C   2)                1.3719 -0.000113 -0.0001    1.3718   
     5. B(O   3,C   1)                2.2347  0.000036 -0.0020    2.2327          0.33
     6. B(O   3,Li  0)                1.7292  0.000206  0.0000    1.7293   
     7. B(H   4,C   1)                1.1085 -0.000135  0.0000    1.1085   
     8. B(H   5,C   2)                1.1169 -0.000121  0.0004    1.1173   
     9. B(H   6,C   2)                1.1310  0.000711 -0.0011    1.1299   
    10. A(C   1,Li  0,O   3)           70.90  0.000009    0.01     70.91   
    11. A(C   1,Li  0,C   2)           38.44  0.000026   -0.07     38.37   
    12. A(C   2,Li  0,O   3)           35.38  0.000026   -0.18     35.20   
    13. A(C   2,C   1,H   4)          113.63 -0.000090   -0.18    113.45   
    14. A(Li  0,C   1,H   4)          156.20  0.000228   -0.91    155.28   
    15. A(Li  0,C   1,C   2)           80.22 -0.000052    0.44     80.66   
    16. A(C   1,C   2,O   3)          103.06  0.000093   -0.16    102.90          0.26
    17. A(Li  0,C   2,O   3)           46.87  0.000153   -0.26     46.61   
    18. A(Li  0,C   2,C   1)           61.34  0.000026   -0.37     60.97   
    19. A(Li  0,C   2,H   5)          149.07  0.000614   -1.27    147.80   
    20. A(C   1,C   2,H   5)          113.91  0.000144   -0.51    113.40   
    21. A(O   3,C   2,H   5)          113.74  0.000239    0.08    113.81   
    22. A(Li  0,C   2,H   6)          107.35 -0.000643    1.38    108.73   
    23. A(C   1,C   2,H   6)          106.36 -0.000016    0.71    107.07          0.25
    24. A(H   5,C   2,H   6)          103.25  0.000012   -0.05    103.20   
    25. A(O   3,C   2,H   6)          116.68 -0.000489   -0.06    116.62   
    26. A(Li  0,O   3,C   2)           97.75 -0.000178    0.44     98.19   
    27. D(C   2,C   1,Li  0,O   3)    -17.91 -0.000125    0.77    -17.15   
    28. D(H   4,C   1,Li  0,C   2)    128.10 -0.000050   -0.78    127.32   
    29. D(H   4,C   1,Li  0,O   3)    110.18 -0.000175   -0.01    110.17   
    30. D(H   5,C   2,Li  0,C   1)    -89.22  0.000013    0.98    -88.24   
    31. D(O   3,C   2,C   1,H   4)   -137.62  0.000019   -0.03   -137.65          0.30
    32. D(H   5,C   2,Li  0,O   3)     60.65 -0.000192    2.21     62.86   
    33. D(O   3,C   2,Li  0,C   1)   -149.87  0.000206   -1.23   -151.10          0.26
    34. D(H   6,C   2,Li  0,O   3)   -110.60  0.000104    1.29   -109.31   
    35. D(Li  0,C   2,C   1,H   4)   -159.72 -0.000191    0.95   -158.76   
    36. D(O   3,C   2,C   1,Li  0)     22.09  0.000210   -0.98     21.11   
    37. D(C   1,C   2,Li  0,O   3)    149.87 -0.000206    1.23    151.10          0.26
    38. D(H   5,C   2,C   1,Li  0)    145.79  0.000653   -1.29    144.50   
    39. D(H   5,C   2,C   1,H   4)    -13.93  0.000462   -0.33    -14.26   
    40. D(H   6,C   2,C   1,Li  0)   -101.17  0.000730   -1.17   -102.33   
    41. D(H   6,C   2,Li  0,C   1)     99.53  0.000310    0.06     99.59          0.27
    42. D(Li  0,O   3,C   2,H   6)     89.23 -0.000402    1.94     91.17   
    43. D(Li  0,O   3,C   2,H   5)   -150.70 -0.000576    1.89   -148.80   
    44. D(Li  0,O   3,C   2,C   1)    -26.88 -0.000198    1.20    -25.68   
    45. D(C   2,O   3,Li  0,C   1)     19.29  0.000134   -0.77     18.51   
    ----------------------------------------------------------------------------

Geometry step timings:
Preparation and reading OPT file:      0.000 s ( 2.233 %)
Internal coordinates            :      0.000 s ( 2.109 %)
B/P matrices and projection     :      0.000 s (15.509 %)
Hessian update/contruction      :      0.000 s (21.340 %)
Making the step                 :      0.000 s (21.960 %)
Converting the step to Cartesian:      0.000 s ( 2.605 %)
Storing new data                :      0.000 s ( 4.218 %)
Checking convergence            :      0.000 s ( 4.094 %)
Final printing                  :      0.000 s (25.931 %)
Total time                      :      0.001 s

Time for energy+gradient        :      2.556 s
Time for complete geometry iter :      2.595 s

         *************************************************************
         *                GEOMETRY OPTIMIZATION CYCLE   4            *
         *************************************************************
---------------------------------
CARTESIAN COORDINATES (ANGSTROEM)
---------------------------------
  Li     1.741464   -0.865230    0.394855
  C      0.601689    0.655323   -0.468139
  C     -0.491274   -0.192747    0.062938
  O      0.136816   -0.927024    1.036780
  H      0.296121    1.705269   -0.650113
  H     -1.366936    0.393878    0.433773
  H     -0.917879   -0.769469   -0.810094

----------------------------
CARTESIAN COORDINATES (A.U.)
----------------------------
  NO LB      ZA    FRAG     MASS         X           Y           Z
   0 Li    3.0000    0     6.941    3.290890   -1.635047    0.746168
   1 C     6.0000    0    12.011    1.137027    1.238380   -0.884655
   2 C     6.0000    0    12.011   -0.928374   -0.364240    0.118936
   3 O     8.0000    0    15.999    0.258545   -1.751821    1.959230
   4 H     1.0000    0     1.008    0.559587    3.222491   -1.228535
   5 H     1.0000    0     1.008   -2.583135    0.744322    0.819713
   6 H     1.0000    0     1.008   -1.734540   -1.454085   -1.530856

--------------------------------
INTERNAL COORDINATES (ANGSTROEM)
--------------------------------
 Li     0   0   0     0.000000000000     0.00000000     0.00000000
 C      1   0   0     2.087085652386     0.00000000     0.00000000
 C      2   1   0     1.481834789232    80.65634421     0.00000000
 O      3   2   1     1.371869701762   102.88791116    21.11599631
 H      2   1   3     1.108545080704   155.29216468   127.32613209
 H      3   2   1     1.117332710039   113.36040649   144.51874523
 H      3   2   1     1.129948819362   107.07762138   257.66587012

---------------------------
INTERNAL COORDINATES (A.U.)
---------------------------
 Li     0   0   0     0.000000000000     0.00000000     0.00000000
 C      1   0   0     3.944020301046     0.00000000     0.00000000
 C      2   1   0     2.800261927366    80.65634421     0.00000000
 O      3   2   1     2.592458027754   102.88791116    21.11599631
 H      2   1   3     2.094846609636   155.29216468   127.32613209
 H      3   2   1     2.111452822445   113.36040649   144.51874523
 H      3   2   1     2.135293813942   107.07762138   257.66587012

------------------------------------------------------------------------------
                   ___                                                        
                  /   \      - P O W E R E D   B Y -                         
                 /     \                                                     
                 |  |  |   _    _      __       _____    __    __             
                 |  |  |  | |  | |    /  \     |  _  \  |  |  /  |          
                  \  \/   | |  | |   /    \    | | | |  |  | /  /          
                 / \  \   | |__| |  /  /\  \   | |_| |  |  |/  /          
                |  |  |   |  __  | /  /__\  \  |    /   |      \           
                |  |  |   | |  | | |   __   |  |    \   |  |\   \          
                \     /   | |  | | |  |  |  |  | |\  \  |  | \   \       
                 \___/    |_|  |_| |__|  |__|  |_| \__\ |__|  \__/        
                                                                              
                      - O R C A' S   B I G   F R I E N D -                    
                                      &                                       
                       - I N T E G R A L  F E E D E R -                       
                                                                              
 v1 FN, 2020, v2 2021, v3 2022-2024                                           
------------------------------------------------------------------------------


----------------------
SHARK INTEGRAL PACKAGE
----------------------

Number of atoms                             ...      7
Number of basis functions                   ...     66
Number of shells                            ...     32
Maximum angular momentum                    ...      2
Integral batch strategy                     ... SHARK/LIBINT Hybrid
RI-J (if used) integral strategy            ... SPLIT-RIJ (Revised 2003 algorithm where possible)
Printlevel                                  ...      1
Contraction scheme used                     ... SEGMENTED contraction
Prescreening option                         ... SCHWARTZ
   Thresh                                   ... 2.500e-11
   Tcut                                     ... 2.500e-12
   Tpresel                                  ... 2.500e-12 
Coulomb Range Separation                    ... NOT USED
Exchange Range Separation                   ... NOT USED
Multipole approximations                    ... NOT USED
Finite Nucleus Model                        ... NOT USED
CABS basis                                  ... NOT available
Auxiliary Coulomb fitting basis             ... NOT available
Auxiliary J/K fitting basis                 ... NOT available
Auxiliary Correlation fitting basis         ... NOT available
Auxiliary 'external' fitting basis          ... NOT available

Checking pre-screening integrals            ... done (  0.0 sec) Dimension = 32
   => SHARK Basis and OBASIS are compatible. Storing Pre-screening
Shell pair information
Shell pair cut-off parameter TPreSel        ...   2.5e-12
Total number of shell pairs                 ...       528
Shell pairs after pre-screening             ...       527
Total number of primitive shell pairs       ...      1950
Primitive shell pairs kept                  ...      1660
          la=0 lb=0:    170 shell pairs
          la=1 lb=0:    198 shell pairs
          la=1 lb=1:     66 shell pairs
          la=2 lb=0:     54 shell pairs
          la=2 lb=1:     33 shell pairs
          la=2 lb=2:      6 shell pairs

Checking whether 4 symmetric matrices of dimension 66 fit in memory
:Max Core in MB      =   4000.00
 MB in use           =      1.78
 MB left             =   3998.22
 MB needed           =      0.07
 Data fit in memory  = YES
Calculating Nuclear repulsion               ... done (  0.0 sec) ENN=     79.236432063142 Eh

Diagonalization of the overlap matrix:
Smallest eigenvalue                        ... 4.219e-03
Time for diagonalization                   ...    0.000 sec
Threshold for overlap eigenvalues          ... 1.000e-07
Number of eigenvalues below threshold      ... 0
Time for construction of square roots      ...    0.000 sec
Total time needed                          ...    0.001 sec

-------------------
DFT GRID GENERATION
-------------------

General Integration Accuracy     IntAcc      ... 4.388
Radial Grid Type                 RadialGrid  ... OptM3 with GC (2021)
Angular Grid (max. ang.)         AngularGrid ... 4 (Lebedev-302)
Angular grid pruning method      GridPruning ... 4 (adaptive)
Weight generation scheme         WeightScheme... mBecke (2022)
Basis function cutoff            BFCut       ... 1.0000e-11
Integration weight cutoff        WCut        ... 1.0000e-14
Partially contracted basis set               ... off
Rotationally invariant grid construction     ... off
Angular grids for H and He will be reduced by one unit

Total number of grid points                  ...    33983
Total number of batches                      ...      536
Average number of points per batch           ...       63
Average number of grid points per atom       ...     4855
Grids setup in   0.1 sec
Initializing property integral containers    ... done (  0.0 sec)

SHARK setup successfully completed in   0.1 seconds

Maximum memory used throughout the entire STARTUP-calculation: 12.6 MB
Occupation numbers will be reassigned to an Aufbau configuration
             **** ENERGY FILE WAS UPDATED (oxiranyl_neb2.en.tmp) ****
Finished Guess after   0.0 sec
Maximum memory used throughout the entire GUESS-calculation: 4.4 MB
----------------------------------------D-I-I-S--------------------------------------------
Iteration    Energy (Eh)           Delta-E    RMSDP     MaxDP     DIISErr   Damp  Time(sec)
-------------------------------------------------------------------------------------------
               ***  Starting incremental Fock matrix formation  ***
                              *** Initializing SOSCF ***
---------------------------------------S-O-S-C-F--------------------------------------
Iteration    Energy (Eh)           Delta-E    RMSDP     MaxDP     MaxGrad    Time(sec)
--------------------------------------------------------------------------------------
    1    -160.4454366733415043     0.00e+00  2.74e-04  3.30e-03  3.38e-04     0.2
               *** Restarting incremental Fock matrix formation ***
    2    -160.4454998380047357    -6.32e-05  1.57e-04  1.27e-03  5.43e-04     0.2
    3    -160.4455154008772126    -1.56e-05  1.05e-04  8.50e-04  2.08e-04     0.2
    4    -160.4455174927373093    -2.09e-06  4.66e-05  7.04e-04  2.26e-04     0.2
    5    -160.4455180768370042    -5.84e-07  2.24e-05  2.06e-04  1.36e-04     0.2
    6    -160.4455183779078595    -3.01e-07  9.62e-06  1.25e-04  2.98e-05     0.2
    7    -160.4455184073790406    -2.95e-08  4.99e-06  5.72e-05  1.41e-05     0.2
    8    -160.4455184193878949    -1.20e-08  1.51e-06  1.60e-05  3.34e-06     0.2
    9    -160.4455184201514442    -7.64e-10  3.57e-07  3.07e-06  1.06e-06     0.1
                 **** Energy Check signals convergence ****

               *****************************************************
               *                     SUCCESS                       *
               *           SCF CONVERGED AFTER   9 CYCLES          *
               *****************************************************

             **** ENERGY FILE WAS UPDATED (oxiranyl_neb2.en.tmp) ****

----------------
TOTAL SCF ENERGY
----------------

Total Energy       :       -160.44551842040590 Eh           -4365.94452 eV

Components:
Nuclear Repulsion  :         79.23643206314242 Eh            2156.13293 eV
Electronic Energy  :       -239.68195048354832 Eh           -6522.07745 eV
One Electron Energy:       -375.50558413203157 Eh          -10218.02642 eV
Two Electron Energy:        135.82363364848325 Eh            3695.94897 eV

Virial components:
Potential Energy   :       -319.53389562738892 Eh           -8694.95934 eV
Kinetic Energy     :        159.08837720698304 Eh            4329.01483 eV
Virial Ratio       :          2.00853073767707

DFT components:
N(Alpha)           :       12.999938807818 electrons
N(Beta)            :       12.999938807818 electrons
N(Total)           :       25.999877615635 electrons
E(XC)              :      -10.764278461936 Eh       

---------------
SCF CONVERGENCE
---------------

  Last Energy change         ...    7.6355e-10  Tolerance :   1.0000e-08
  Last MAX-Density change    ...    3.0718e-06  Tolerance :   1.0000e-07
  Last RMS-Density change    ...    3.5702e-07  Tolerance :   5.0000e-09
  Last DIIS Error            ...    2.7831e-03  Tolerance :   5.0000e-07
  Last Orbital Gradient      ...    1.0585e-06  Tolerance :   1.0000e-05
  Last Orbital Rotation      ...    5.4325e-06  Tolerance :   1.0000e-05


Total SCF time: 0 days 0 hours 0 min 1 sec 
Finished LeanSCF after   1.6 sec

Maximum memory used throughout the entire LEANSCF-calculation: 7.1 MB

-------------------------   --------------------
FINAL SINGLE POINT ENERGY      -160.445518420406
-------------------------   --------------------

------------------------------------------------------------------------------
                         ORCA SCF GRADIENT CALCULATION
------------------------------------------------------------------------------

Nuc. rep. gradient        (SHARK) ... done (  0.0 sec)
HCore & Overlap gradient  (SHARK) ... done (  0.0 sec)
Two-electron gradient     (SHARK) ... done (  0.2 sec)
XC gradient                       ... done (  0.4 sec)

------------------
CARTESIAN GRADIENT
------------------

   1   Li  :   -0.000253636   -0.000626299   -0.001025765
   2   C   :    0.000595473    0.000084995   -0.000101680
   3   C   :    0.000708010    0.001841851    0.001874992
   4   O   :   -0.000310128    0.000143083    0.000065389
   5   H   :   -0.000207463   -0.000212894    0.000412066
   6   H   :   -0.000513385   -0.000165860   -0.001023385
   7   H   :   -0.000018871   -0.001064877   -0.000201617

Difference to translation invariance:
           :    0.0000000000   -0.0000000000    0.0000000000

Difference to rotation invariance:
           :   -0.0000995623    0.0006147264   -0.0018952961

Norm of the Cartesian gradient     ...    0.0034903670
RMS gradient                       ...    0.0007616605
MAX gradient                       ...    0.0018749915

-------
TIMINGS
-------

Total SCF gradient time     ....        0.622 sec

Densities                   ....       0.000 sec  (  0.0%)
One electron gradient       ....       0.005 sec  (  0.8%)
Two electron gradient       ....       0.238 sec  ( 38.3%)
XC gradient                 ....       0.379 sec  ( 60.9%)

Maximum memory used throughout the entire SCFGRAD-calculation: 12.9 MB
------------------------------------------------------------------------------
                         ORCA GEOMETRY RELAXATION STEP
------------------------------------------------------------------------------

Reading the OPT-File                    .... done
Getting information on internals        .... done
Copying old internal coords+grads       .... done
Making the new internal coordinates     .... (2022 redundants) done
Validating the new internal coordinates .... (2022 redundants) done
Calculating the B-matrix                .... done
Calculating the G,G- and P matrices     .... done
Transforming gradient to internals      .... done
Projecting the internal gradient        .... done
Number of atoms                         ....   7
Number of internal coordinates          ....  45
Current Energy                          ....  -160.445518420 Eh
Current gradient norm                   ....     0.003490367 Eh/bohr
Maximum allowed component of the step   ....  0.300
Current trust radius                    ....  0.150
Updating the Hessian (Bofill)           .... done
Diagonalizing the Hessian               .... done
Dimension of the hessian                ....  45
Lowest eigenvalues of the Hessian:
 -0.026936496  0.004446535  0.025373441  0.059408851  0.118061737
Hessian has   1 negative eigenvalues
Taking P-RFO step
Searching for lambda that maximizes along the lowest mode
TS mode is mode number   0 with eigenvalue  -0.02693650 and components:
   1.    0.09165587
   2.   -0.24086439
   3.   -0.06404986
   4.   -0.06884386
   5.    0.33220268
   6.    0.01998558
   7.   -0.00523729
   8.    0.01292597
   9.    0.07688715
  10.    0.09003732
  11.    0.00849490
  12.    0.02998295
  13.    0.01755638
  14.    0.19822996
  15.   -0.11440599
  16.    0.26111590
  17.    0.08051414
  18.    0.10591109
  19.    0.12364847
  20.    0.00689301
  21.    0.06190166
  22.   -0.00647203
  23.   -0.25122034
  24.   -0.10489104
  25.    0.00017625
  26.   -0.11049709
  27.    0.14365833
  28.    0.06084121
  29.    0.20449954
  30.   -0.13824579
  31.   -0.30488856
  32.    0.12778402
  33.   -0.26602982
  34.    0.00068532
  35.   -0.17814037
  36.   -0.12674819
  37.    0.26602982
  38.    0.13946211
  39.   -0.03867826
  40.   -0.13696561
  41.   -0.26534450
  42.    0.03578122
  43.   -0.05648087
  44.    0.16866629
  45.   -0.16661542

Lambda that maximizes along the TS mode:       0.00000003
Searching for lambda that minimizes along all other modes
In cycle   1: lambdaN =  -0.00019043   step =   0.00019043
In cycle   2: lambdaN =  -0.00019074   step =   0.00000031
In cycle   3: lambdaN =  -0.00019074   step =   0.00000000
Lambda that minimizes along all other modes:  -0.00019074
Calculated stepsize too large (   0.1940 >    0.1500). Scaled with    0.7730.
The final length of the internal step   ....       0.1500
Converting the step to Cartesian space:
 Initial RMS(Int)=    0.0223606798
Transforming coordinates:
 Iter   0:  RMS(Cart)=    0.0209785489 RMS(Int)=    0.0222681063
done
Storing new coordinates                 .... done
The predicted energy change is          ....    -0.000092589
Previously predicted energy change      ....    -0.000111926
Actually observed energy change         ....    -0.000110818
Ratio of predicted to observed change   ....     0.990101738
New trust radius                        ....     0.225000000

                                .--------------------.
          ----------------------|Geometry convergence|-------------------------
          Item                value                   Tolerance       Converged
          ---------------------------------------------------------------------
          Energy change      -0.0001108180            0.0000050000      NO
          RMS gradient        0.0002861824            0.0001000000      NO
          MAX gradient        0.0007477634            0.0003000000      NO
          RMS step            0.0223606798            0.0020000000      NO
          MAX step            0.0544809613            0.0040000000      NO
          -------------------------------------------------------------------------
          ........................................................
          Max(Bonds)      0.0117      Max(Angles)    2.15
          Max(Dihed)        3.12      Max(Improp)    0.00
          ---------------------------------------------------------------------

The optimization has not yet converged - more geometry cycles are needed


    ---------------------------------------------------------------------------
                         Redundant Internal Coordinates
                            (Angstroem and degrees)

        Definition                    Value    dE/dq     Step     New-Value  comp.(TS mode)
    ----------------------------------------------------------------------------
     1. B(C   1,Li  0)                2.0871 -0.000195 -0.0047    2.0824   
     2. B(C   2,Li  0)                2.3553 -0.000105  0.0117    2.3671   
     3. B(C   2,C   1)                1.4818 -0.000066  0.0014    1.4832   
     4. B(O   3,C   2)                1.3719 -0.000125  0.0002    1.3720   
     5. B(O   3,C   1)                2.2326 -0.000073 -0.0035    2.2292          0.33
     6. B(O   3,Li  0)                1.7294  0.000260  0.0000    1.7294   
     7. B(H   4,C   1)                1.1085 -0.000151  0.0001    1.1086   
     8. B(H   5,C   2)                1.1173 -0.000070  0.0006    1.1180   
     9. B(H   6,C   2)                1.1299  0.000748 -0.0023    1.1276   
    10. A(C   1,Li  0,O   3)           70.90 -0.000022   -0.01     70.89   
    11. A(C   1,Li  0,C   2)           38.37  0.000004   -0.10     38.28   
    12. A(C   2,Li  0,O   3)           35.21 -0.000005   -0.26     34.94   
    13. A(C   2,C   1,H   4)          113.43 -0.000187   -0.16    113.27   
    14. A(Li  0,C   1,H   4)          155.29  0.000201   -1.43    153.86   
    15. A(Li  0,C   1,C   2)           80.66  0.000033    0.65     81.31   
    16. A(C   1,C   2,O   3)          102.89  0.000045   -0.30    102.58          0.26
    17. A(Li  0,C   2,O   3)           46.62  0.000128   -0.40     46.22   
    18. A(Li  0,C   2,C   1)           60.97 -0.000037   -0.56     60.41   
    19. A(Li  0,C   2,H   5)          147.78  0.000627   -2.12    145.66   
    20. A(C   1,C   2,H   5)          113.36  0.000160   -0.83    112.53   
    21. A(O   3,C   2,H   5)          113.84  0.000337   -0.02    113.82   
    22. A(Li  0,C   2,H   6)          108.73 -0.000497    2.15    110.88   
    23. A(C   1,C   2,H   6)          107.08  0.000112    1.07    108.15          0.25
    24. A(H   5,C   2,H   6)          103.21 -0.000143    0.05    103.26   
    25. A(O   3,C   2,H   6)          116.62 -0.000509    0.06    116.69   
    26. A(Li  0,O   3,C   2)           98.17 -0.000123    0.67     98.84   
    27. D(C   2,C   1,Li  0,O   3)    -17.15 -0.000064    1.11    -16.04   
    28. D(H   4,C   1,Li  0,C   2)    127.33 -0.000145   -0.85    126.47   
    29. D(H   4,C   1,Li  0,O   3)    110.18 -0.000209    0.26    110.44   
    30. D(H   5,C   2,Li  0,C   1)    -88.27  0.000122    1.34    -86.93   
    31. D(O   3,C   2,C   1,H   4)   -137.65 -0.000028    0.00   -137.64          0.30
    32. D(H   5,C   2,Li  0,O   3)     62.83  0.000007    3.12     65.96   
    33. D(O   3,C   2,Li  0,C   1)   -151.11  0.000115   -1.78   -152.88          0.27
    34. D(H   6,C   2,Li  0,O   3)   -109.31  0.000259    1.81   -107.50   
    35. D(Li  0,C   2,C   1,H   4)   -158.76 -0.000159    1.43   -157.33   
    36. D(O   3,C   2,C   1,Li  0)     21.12  0.000131   -1.42     19.69   
    37. D(C   1,C   2,Li  0,O   3)    151.11 -0.000115    1.78    152.88          0.27
    38. D(H   5,C   2,C   1,Li  0)    144.52  0.000663   -2.13    142.39   
    39. D(H   5,C   2,C   1,H   4)    -14.24  0.000504   -0.70    -14.95   
    40. D(H   6,C   2,C   1,Li  0)   -102.33  0.000640   -1.85   -104.18   
    41. D(H   6,C   2,Li  0,C   1)     99.58  0.000374    0.04     99.62          0.27
    42. D(Li  0,O   3,C   2,H   6)     91.17 -0.000187    2.88     94.05   
    43. D(Li  0,O   3,C   2,H   5)   -148.77 -0.000511    2.98   -145.78   
    44. D(Li  0,O   3,C   2,C   1)    -25.68 -0.000095    1.74    -23.95   
    45. D(C   2,O   3,Li  0,C   1)     18.51  0.000074   -1.12     17.39   
    ----------------------------------------------------------------------------

Geometry step timings:
Preparation and reading OPT file:      0.000 s ( 2.276 %)
Internal coordinates            :      0.000 s ( 2.276 %)
B/P matrices and projection     :      0.000 s (15.550 %)
Hessian update/contruction      :      0.000 s (20.733 %)
Making the step                 :      0.000 s (22.377 %)
Converting the step to Cartesian:      0.000 s ( 2.781 %)
Storing new data                :      0.000 s ( 4.298 %)
Checking convergence            :      0.000 s ( 3.919 %)
Final printing                  :      0.000 s (25.790 %)
Total time                      :      0.001 s

Time for energy+gradient        :      2.551 s
Time for complete geometry iter :      2.590 s

         *************************************************************
         *                GEOMETRY OPTIMIZATION CYCLE   5            *
         *************************************************************
---------------------------------
CARTESIAN COORDINATES (ANGSTROEM)
---------------------------------
  Li     1.754015   -0.843618    0.413924
  C      0.602794    0.648190   -0.472120
  C     -0.494968   -0.199342    0.054291
  O      0.137229   -0.940083    1.020925
  H      0.298717    1.700197   -0.645066
  H     -1.354469    0.404534    0.436925
  H     -0.943317   -0.769878   -0.808879

----------------------------
CARTESIAN COORDINATES (A.U.)
----------------------------
  NO LB      ZA    FRAG     MASS         X           Y           Z
   0 Li    3.0000    0     6.941    3.314608   -1.594207    0.782202
   1 C     6.0000    0    12.011    1.139116    1.224902   -0.892178
   2 C     6.0000    0    12.011   -0.935354   -0.376701    0.102596
   3 O     8.0000    0    15.999    0.259325   -1.776500    1.929268
   4 H     1.0000    0     1.008    0.564493    3.212906   -1.218998
   5 H     1.0000    0     1.008   -2.559576    0.764459    0.825669
   6 H     1.0000    0     1.008   -1.782611   -1.454859   -1.528559

--------------------------------
INTERNAL COORDINATES (ANGSTROEM)
--------------------------------
 Li     0   0   0     0.000000000000     0.00000000     0.00000000
 C      1   0   0     2.082276335397     0.00000000     0.00000000
 C      2   1   0     1.483408606859    81.30399166     0.00000000
 O      3   2   1     1.372133644160   102.56051025    19.69959142
 H      2   1   3     1.108643493827   153.87688871   126.48350060
 H      3   2   1     1.117952005919   112.44439668   142.42784578
 H      3   2   1     1.127648682705   108.15971934   255.81473390

---------------------------
INTERNAL COORDINATES (A.U.)
---------------------------
 Li     0   0   0     0.000000000000     0.00000000     0.00000000
 C      1   0   0     3.934932009046     0.00000000     0.00000000
 C      2   1   0     2.803236011664    81.30399166     0.00000000
 O      3   2   1     2.592956806602   102.56051025    19.69959142
 H      2   1   3     2.095032583486   153.87688871   126.48350060
 H      3   2   1     2.112623122054   112.44439668   142.42784578
 H      3   2   1     2.130947185590   108.15971934   255.81473390

------------------------------------------------------------------------------
                   ___                                                        
                  /   \      - P O W E R E D   B Y -                         
                 /     \                                                     
                 |  |  |   _    _      __       _____    __    __             
                 |  |  |  | |  | |    /  \     |  _  \  |  |  /  |          
                  \  \/   | |  | |   /    \    | | | |  |  | /  /          
                 / \  \   | |__| |  /  /\  \   | |_| |  |  |/  /          
                |  |  |   |  __  | /  /__\  \  |    /   |      \           
                |  |  |   | |  | | |   __   |  |    \   |  |\   \          
                \     /   | |  | | |  |  |  |  | |\  \  |  | \   \       
                 \___/    |_|  |_| |__|  |__|  |_| \__\ |__|  \__/        
                                                                              
                      - O R C A' S   B I G   F R I E N D -                    
                                      &                                       
                       - I N T E G R A L  F E E D E R -                       
                                                                              
 v1 FN, 2020, v2 2021, v3 2022-2024                                           
------------------------------------------------------------------------------


----------------------
SHARK INTEGRAL PACKAGE
----------------------

Number of atoms                             ...      7
Number of basis functions                   ...     66
Number of shells                            ...     32
Maximum angular momentum                    ...      2
Integral batch strategy                     ... SHARK/LIBINT Hybrid
RI-J (if used) integral strategy            ... SPLIT-RIJ (Revised 2003 algorithm where possible)
Printlevel                                  ...      1
Contraction scheme used                     ... SEGMENTED contraction
Prescreening option                         ... SCHWARTZ
   Thresh                                   ... 2.500e-11
   Tcut                                     ... 2.500e-12
   Tpresel                                  ... 2.500e-12 
Coulomb Range Separation                    ... NOT USED
Exchange Range Separation                   ... NOT USED
Multipole approximations                    ... NOT USED
Finite Nucleus Model                        ... NOT USED
CABS basis                                  ... NOT available
Auxiliary Coulomb fitting basis             ... NOT available
Auxiliary J/K fitting basis                 ... NOT available
Auxiliary Correlation fitting basis         ... NOT available
Auxiliary 'external' fitting basis          ... NOT available

Checking pre-screening integrals            ... done (  0.0 sec) Dimension = 32
   => SHARK Basis and OBASIS are compatible. Storing Pre-screening
Shell pair information
Shell pair cut-off parameter TPreSel        ...   2.5e-12
Total number of shell pairs                 ...       528
Shell pairs after pre-screening             ...       527
Total number of primitive shell pairs       ...      1950
Primitive shell pairs kept                  ...      1660
          la=0 lb=0:    170 shell pairs
          la=1 lb=0:    198 shell pairs
          la=1 lb=1:     66 shell pairs
          la=2 lb=0:     54 shell pairs
          la=2 lb=1:     33 shell pairs
          la=2 lb=2:      6 shell pairs

Checking whether 4 symmetric matrices of dimension 66 fit in memory
:Max Core in MB      =   4000.00
 MB in use           =      1.78
 MB left             =   3998.22
 MB needed           =      0.07
 Data fit in memory  = YES
Calculating Nuclear repulsion               ... done (  0.0 sec) ENN=     79.225809985996 Eh

Diagonalization of the overlap matrix:
Smallest eigenvalue                        ... 4.216e-03
Time for diagonalization                   ...    0.000 sec
Threshold for overlap eigenvalues          ... 1.000e-07
Number of eigenvalues below threshold      ... 0
Time for construction of square roots      ...    0.000 sec
Total time needed                          ...    0.000 sec

-------------------
DFT GRID GENERATION
-------------------

General Integration Accuracy     IntAcc      ... 4.388
Radial Grid Type                 RadialGrid  ... OptM3 with GC (2021)
Angular Grid (max. ang.)         AngularGrid ... 4 (Lebedev-302)
Angular grid pruning method      GridPruning ... 4 (adaptive)
Weight generation scheme         WeightScheme... mBecke (2022)
Basis function cutoff            BFCut       ... 1.0000e-11
Integration weight cutoff        WCut        ... 1.0000e-14
Partially contracted basis set               ... off
Rotationally invariant grid construction     ... off
Angular grids for H and He will be reduced by one unit

Total number of grid points                  ...    33989
Total number of batches                      ...      536
Average number of points per batch           ...       63
Average number of grid points per atom       ...     4856
Grids setup in   0.1 sec
Initializing property integral containers    ... done (  0.0 sec)

SHARK setup successfully completed in   0.1 seconds

Maximum memory used throughout the entire STARTUP-calculation: 12.6 MB
Occupation numbers will be reassigned to an Aufbau configuration
             **** ENERGY FILE WAS UPDATED (oxiranyl_neb2.en.tmp) ****
Finished Guess after   0.0 sec
Maximum memory used throughout the entire GUESS-calculation: 4.4 MB
----------------------------------------D-I-I-S--------------------------------------------
Iteration    Energy (Eh)           Delta-E    RMSDP     MaxDP     DIISErr   Damp  Time(sec)
-------------------------------------------------------------------------------------------
               ***  Starting incremental Fock matrix formation  ***
    1    -160.4454178840500163     0.00e+00  1.25e-04  1.47e-03  4.45e-03  0.700   0.2
    2    -160.4454578741763271    -4.00e-05  1.20e-04  1.39e-03  3.61e-03  0.700   0.2
                               ***Turning on AO-DIIS***
                              *** Initializing SOSCF ***
---------------------------------------S-O-S-C-F--------------------------------------
Iteration    Energy (Eh)           Delta-E    RMSDP     MaxDP     MaxGrad    Time(sec)
--------------------------------------------------------------------------------------
    3    -160.4454922078047048    -3.43e-05  3.60e-04  3.79e-03  2.82e-03     0.2
               *** Restarting incremental Fock matrix formation ***
    4    -160.4455976462154467    -1.05e-04  1.10e-04  9.07e-04  3.33e-04     0.2
    5    -160.4456050836263330    -7.44e-06  1.08e-04  1.12e-03  1.94e-04     0.2
    6    -160.4456074255515432    -2.34e-06  3.39e-05  4.08e-04  9.82e-05     0.2
    7    -160.4456075602157625    -1.35e-07  1.68e-05  2.11e-04  1.12e-04     0.2
    8    -160.4456077553658133    -1.95e-07  7.41e-06  1.24e-04  2.53e-05     0.2
    9    -160.4456077658526851    -1.05e-08  3.74e-06  5.42e-05  1.91e-05     0.2
   10    -160.4456077769497711    -1.11e-08  7.77e-07  1.02e-05  2.90e-06     0.2
   11    -160.4456077773057814    -3.56e-10  3.22e-07  4.33e-06  8.47e-07     0.1
                 **** Energy Check signals convergence ****

               *****************************************************
               *                     SUCCESS                       *
               *           SCF CONVERGED AFTER  11 CYCLES          *
               *****************************************************

             **** ENERGY FILE WAS UPDATED (oxiranyl_neb2.en.tmp) ****

----------------
TOTAL SCF ENERGY
----------------

Total Energy       :       -160.44560777752639 Eh           -4365.94695 eV

Components:
Nuclear Repulsion  :         79.22580998599584 Eh            2155.84389 eV
Electronic Energy  :       -239.67141776352224 Eh           -6521.79084 eV
One Electron Energy:       -375.48481013091418 Eh          -10217.46113 eV
Two Electron Energy:        135.81339236739194 Eh            3695.67029 eV

Virial components:
Potential Energy   :       -319.53370337345979 Eh           -8694.95411 eV
Kinetic Energy     :        159.08809559593340 Eh            4329.00716 eV
Virial Ratio       :          2.00853308461898

DFT components:
N(Alpha)           :       12.999953190064 electrons
N(Beta)            :       12.999953190064 electrons
N(Total)           :       25.999906380127 electrons
E(XC)              :      -10.764148860829 Eh       

---------------
SCF CONVERGENCE
---------------

  Last Energy change         ...    3.5601e-10  Tolerance :   1.0000e-08
  Last MAX-Density change    ...    4.3250e-06  Tolerance :   1.0000e-07
  Last RMS-Density change    ...    3.2236e-07  Tolerance :   5.0000e-09
  Last DIIS Error            ...    2.8165e-03  Tolerance :   5.0000e-07
  Last Orbital Gradient      ...    8.4703e-07  Tolerance :   1.0000e-05
  Last Orbital Rotation      ...    7.3314e-06  Tolerance :   1.0000e-05


Total SCF time: 0 days 0 hours 0 min 1 sec 
Finished LeanSCF after   2.0 sec

Maximum memory used throughout the entire LEANSCF-calculation: 7.1 MB

-------------------------   --------------------
FINAL SINGLE POINT ENERGY      -160.445607777526
-------------------------   --------------------

------------------------------------------------------------------------------
                         ORCA SCF GRADIENT CALCULATION
------------------------------------------------------------------------------

Nuc. rep. gradient        (SHARK) ... done (  0.0 sec)
HCore & Overlap gradient  (SHARK) ... done (  0.0 sec)
Two-electron gradient     (SHARK) ... done (  0.2 sec)
XC gradient                       ... done (  0.4 sec)

------------------
CARTESIAN GRADIENT
------------------

   1   Li  :    0.000003220   -0.000040539   -0.000559280
   2   C   :    0.000833521   -0.000116647   -0.000267995
   3   C   :    0.000431751    0.001268950    0.001747484
   4   O   :   -0.000362525   -0.000455176   -0.000260294
   5   H   :   -0.000149137   -0.000231449    0.000434345
   6   H   :   -0.000364474    0.000368153   -0.001202632
   7   H   :   -0.000392357   -0.000793293    0.000108372

Difference to translation invariance:
           :    0.0000000000    0.0000000000    0.0000000000

Difference to rotation invariance:
           :   -0.0004371425   -0.0001847740   -0.0025413043

Norm of the Cartesian gradient     ...    0.0030208457
RMS gradient                       ...    0.0006592026
MAX gradient                       ...    0.0017474842

-------
TIMINGS
-------

Total SCF gradient time     ....        0.622 sec

Densities                   ....       0.000 sec  (  0.0%)
One electron gradient       ....       0.005 sec  (  0.8%)
Two electron gradient       ....       0.237 sec  ( 38.2%)
XC gradient                 ....       0.380 sec  ( 61.1%)

Maximum memory used throughout the entire SCFGRAD-calculation: 12.9 MB
------------------------------------------------------------------------------
                         ORCA GEOMETRY RELAXATION STEP
------------------------------------------------------------------------------

Reading the OPT-File                    .... done
Getting information on internals        .... done
Copying old internal coords+grads       .... done
Making the new internal coordinates     .... (2022 redundants) done
Validating the new internal coordinates .... (2022 redundants) done
Calculating the B-matrix                .... done
Calculating the G,G- and P matrices     .... done
Transforming gradient to internals      .... done
Projecting the internal gradient        .... done
Number of atoms                         ....   7
Number of internal coordinates          ....  45
Current Energy                          ....  -160.445607778 Eh
Current gradient norm                   ....     0.003020846 Eh/bohr
Maximum allowed component of the step   ....  0.300
Current trust radius                    ....  0.225
Updating the Hessian (Bofill)           .... done
Diagonalizing the Hessian               .... done
Dimension of the hessian                ....  45
Lowest eigenvalues of the Hessian:
 -0.026936173  0.005307508  0.025337812  0.059384138  0.118059790
Hessian has   1 negative eigenvalues
Taking P-RFO step
Searching for lambda that maximizes along the lowest mode
TS mode is mode number   0 with eigenvalue  -0.02693617 and components:
   1.    0.09112004
   2.   -0.23959570
   3.   -0.06390365
   4.   -0.06883073
   5.    0.33181686
   6.    0.02000897
   7.   -0.00523126
   8.    0.01298252
   9.    0.07668637
  10.    0.09002633
  11.    0.00839656
  12.    0.02971865
  13.    0.01734728
  14.    0.19679627
  15.   -0.11374526
  16.    0.26081020
  17.    0.08012004
  18.    0.10534870
  19.    0.12154030
  20.    0.00601364
  21.    0.06195030
  22.   -0.00434327
  23.   -0.25011800
  24.   -0.10483364
  25.    0.00016986
  26.   -0.10983869
  27.    0.14479363
  28.    0.05990167
  29.    0.20469530
  30.   -0.13688363
  31.   -0.30488348
  32.    0.13097249
  33.   -0.26785611
  34.    0.00258463
  35.   -0.17668669
  36.   -0.12819679
  37.    0.26785611
  38.    0.13737860
  39.   -0.03930809
  40.   -0.13877458
  41.   -0.26527148
  42.    0.03870124
  43.   -0.05344643
  44.    0.17044107
  45.   -0.16776363

Lambda that maximizes along the TS mode:       0.00000010
Searching for lambda that minimizes along all other modes
In cycle   1: lambdaN =  -0.00002208   step =   0.00002208
In cycle   2: lambdaN =  -0.00002208   step =   0.00000000
Lambda that minimizes along all other modes:  -0.00002208
The final length of the internal step   ....       0.0366
Converting the step to Cartesian space:
 Initial RMS(Int)=    0.0054606981
Transforming coordinates:
 Iter   0:  RMS(Cart)=    0.0053709661 RMS(Int)=    0.0054593654
done
Storing new coordinates                 .... done
The predicted energy change is          ....    -0.000011009
Previously predicted energy change      ....    -0.000092589
Actually observed energy change         ....    -0.000089357
Ratio of predicted to observed change   ....     0.965090568
New trust radius                        ....     0.337500000

                                .--------------------.
          ----------------------|Geometry convergence|-------------------------
          Item                value                   Tolerance       Converged
          ---------------------------------------------------------------------
          Energy change      -0.0000893571            0.0000050000      NO
          RMS gradient        0.0002415024            0.0001000000      NO
          MAX gradient        0.0005318970            0.0003000000      NO
          RMS step            0.0054606981            0.0020000000      NO
          MAX step            0.0132572160            0.0040000000      NO
          -------------------------------------------------------------------------
          ........................................................
          Max(Bonds)      0.0030      Max(Angles)    0.69
          Max(Dihed)        0.76      Max(Improp)    0.00
          ---------------------------------------------------------------------

The optimization has not yet converged - more geometry cycles are needed


    ---------------------------------------------------------------------------
                         Redundant Internal Coordinates
                            (Angstroem and degrees)

        Definition                    Value    dE/dq     Step     New-Value  comp.(TS mode)
    ----------------------------------------------------------------------------
     1. B(C   1,Li  0)                2.0823 -0.000286 -0.0008    2.0815   
     2. B(C   2,Li  0)                2.3669  0.000088  0.0030    2.3700   
     3. B(C   2,C   1)                1.4834  0.000055  0.0004    1.4838   
     4. B(O   3,C   2)                1.3721 -0.000019  0.0000    1.3722   
     5. B(O   3,C   1)                2.2290 -0.000061 -0.0014    2.2276          0.33
     6. B(O   3,Li  0)                1.7297  0.000256 -0.0002    1.7295   
     7. B(H   4,C   1)                1.1086 -0.000152  0.0001    1.1088   
     8. B(H   5,C   2)                1.1180  0.000014  0.0001    1.1181   
     9. B(H   6,C   2)                1.1276  0.000506 -0.0009    1.1268   
    10. A(C   1,Li  0,O   3)           70.88  0.000005   -0.03     70.85   
    11. A(C   1,Li  0,C   2)           38.28  0.000014   -0.03     38.25   
    12. A(C   2,Li  0,O   3)           34.95 -0.000013   -0.07     34.88   
    13. A(C   2,C   1,H   4)          113.24 -0.000239    0.07    113.31   
    14. A(Li  0,C   1,H   4)          153.88  0.000107   -0.39    153.48   
    15. A(Li  0,C   1,C   2)           81.30  0.000117    0.15     81.46   
    16. A(C   1,C   2,O   3)          102.56 -0.000053   -0.11    102.45          0.26
    17. A(Li  0,C   2,O   3)           46.23  0.000071   -0.11     46.12   
    18. A(Li  0,C   2,C   1)           60.42 -0.000131   -0.13     60.29   
    19. A(Li  0,C   2,H   5)          145.64  0.000494   -0.69    144.96   
    20. A(C   1,C   2,H   5)          112.44  0.000113   -0.18    112.27   
    21. A(O   3,C   2,H   5)          113.87  0.000415   -0.19    113.68   
    22. A(Li  0,C   2,H   6)          110.88 -0.000205    0.58    111.45   
    23. A(C   1,C   2,H   6)          108.16  0.000248    0.24    108.40          0.25
    24. A(H   5,C   2,H   6)          103.27 -0.000290    0.11    103.39   
    25. A(O   3,C   2,H   6)          116.70 -0.000409    0.14    116.84   
    26. A(Li  0,O   3,C   2)           98.82 -0.000058    0.18     99.00   
    27. D(C   2,C   1,Li  0,O   3)    -16.04  0.000017    0.23    -15.81   
    28. D(H   4,C   1,Li  0,C   2)    126.48 -0.000203    0.05    126.53   
    29. D(H   4,C   1,Li  0,O   3)    110.45 -0.000186    0.28    110.72   
    30. D(H   5,C   2,Li  0,C   1)    -86.99  0.000302    0.12    -86.87   
    31. D(O   3,C   2,C   1,H   4)   -137.64 -0.000065    0.03   -137.61          0.30
    32. D(H   5,C   2,Li  0,O   3)     65.91  0.000321    0.48     66.38   
    33. D(O   3,C   2,Li  0,C   1)   -152.89 -0.000019   -0.36   -153.25          0.27
    34. D(H   6,C   2,Li  0,O   3)   -107.49  0.000380    0.32   -107.17   
    35. D(Li  0,C   2,C   1,H   4)   -157.34 -0.000071    0.33   -157.01   
    36. D(O   3,C   2,C   1,Li  0)     19.70  0.000006   -0.30     19.40   
    37. D(C   1,C   2,Li  0,O   3)    152.89  0.000019    0.36    153.25          0.27
    38. D(H   5,C   2,C   1,Li  0)    142.43  0.000532   -0.71    141.72   
    39. D(H   5,C   2,C   1,H   4)    -14.91  0.000461   -0.38    -15.29   
    40. D(H   6,C   2,C   1,Li  0)   -104.19  0.000389   -0.52   -104.71   
    41. D(H   6,C   2,Li  0,C   1)     99.62  0.000361   -0.04     99.58          0.27
    42. D(Li  0,O   3,C   2,H   6)     94.05  0.000112    0.65     94.70   
    43. D(Li  0,O   3,C   2,H   5)   -145.71 -0.000269    0.76   -144.95   
    44. D(Li  0,O   3,C   2,C   1)    -23.95  0.000055    0.35    -23.60   
    45. D(C   2,O   3,Li  0,C   1)     17.38 -0.000007   -0.23     17.16   
    ----------------------------------------------------------------------------

Geometry step timings:
Preparation and reading OPT file:      0.000 s ( 2.258 %)
Internal coordinates            :      0.000 s ( 2.008 %)
B/P matrices and projection     :      0.000 s (15.182 %)
Hessian update/contruction      :      0.000 s (23.338 %)
Making the step                 :      0.000 s (22.334 %)
Converting the step to Cartesian:      0.000 s ( 2.509 %)
Storing new data                :      0.000 s ( 4.266 %)
Checking convergence            :      0.000 s ( 4.391 %)
Final printing                  :      0.000 s (23.714 %)
Total time                      :      0.001 s

Time for energy+gradient        :      2.874 s
Time for complete geometry iter :      2.913 s

         *************************************************************
         *                GEOMETRY OPTIMIZATION CYCLE   6            *
         *************************************************************
---------------------------------
CARTESIAN COORDINATES (ANGSTROEM)
---------------------------------
  Li     1.756737   -0.838180    0.419276
  C      0.602544    0.646460   -0.473070
  C     -0.496294   -0.201515    0.051458
  O      0.137214   -0.942446    1.017172
  H      0.300433    1.699347   -0.644914
  H     -1.351037    0.405627    0.439849
  H     -0.949598   -0.769293   -0.809772

----------------------------
CARTESIAN COORDINATES (A.U.)
----------------------------
  NO LB      ZA    FRAG     MASS         X           Y           Z
   0 Li    3.0000    0     6.941    3.319752   -1.583930    0.792317
   1 C     6.0000    0    12.011    1.138643    1.221632   -0.893973
   2 C     6.0000    0    12.011   -0.937860   -0.380809    0.097242
   3 O     8.0000    0    15.999    0.259298   -1.780964    1.922177
   4 H     1.0000    0     1.008    0.567737    3.211300   -1.218710
   5 H     1.0000    0     1.008   -2.553089    0.766524    0.831194
   6 H     1.0000    0     1.008   -1.794481   -1.453753   -1.530246

--------------------------------
INTERNAL COORDINATES (ANGSTROEM)
--------------------------------
 Li     0   0   0     0.000000000000     0.00000000     0.00000000
 C      1   0   0     2.081489404710     0.00000000     0.00000000
 C      2   1   0     1.483791421835    81.45839905     0.00000000
 O      3   2   1     1.372193158132   102.44322244    19.40169170
 H      2   1   3     1.108770822310   153.48786725   126.53368085
 H      3   2   1     1.118058150566   112.24772990   141.72500289
 H      3   2   1     1.126753240695   108.40385781   255.29178064

---------------------------
INTERNAL COORDINATES (A.U.)
---------------------------
 Li     0   0   0     0.000000000000     0.00000000     0.00000000
 C      1   0   0     3.933444925561     0.00000000     0.00000000
 C      2   1   0     2.803959427129    81.45839905     0.00000000
 O      3   2   1     2.593069271710   102.44322244    19.40169170
 H      2   1   3     2.095273199448   153.48786725   126.53368085
 H      3   2   1     2.112823706369   112.24772990   141.72500289
 H      3   2   1     2.129255045422   108.40385781   255.29178064

------------------------------------------------------------------------------
                   ___                                                        
                  /   \      - P O W E R E D   B Y -                         
                 /     \                                                     
                 |  |  |   _    _      __       _____    __    __             
                 |  |  |  | |  | |    /  \     |  _  \  |  |  /  |          
                  \  \/   | |  | |   /    \    | | | |  |  | /  /          
                 / \  \   | |__| |  /  /\  \   | |_| |  |  |/  /          
                |  |  |   |  __  | /  /__\  \  |    /   |      \           
                |  |  |   | |  | | |   __   |  |    \   |  |\   \          
                \     /   | |  | | |  |  |  |  | |\  \  |  | \   \       
                 \___/    |_|  |_| |__|  |__|  |_| \__\ |__|  \__/        
                                                                              
                      - O R C A' S   B I G   F R I E N D -                    
                                      &                                       
                       - I N T E G R A L  F E E D E R -                       
                                                                              
 v1 FN, 2020, v2 2021, v3 2022-2024                                           
------------------------------------------------------------------------------


----------------------
SHARK INTEGRAL PACKAGE
----------------------

Number of atoms                             ...      7
Number of basis functions                   ...     66
Number of shells                            ...     32
Maximum angular momentum                    ...      2
Integral batch strategy                     ... SHARK/LIBINT Hybrid
RI-J (if used) integral strategy            ... SPLIT-RIJ (Revised 2003 algorithm where possible)
Printlevel                                  ...      1
Contraction scheme used                     ... SEGMENTED contraction
Prescreening option                         ... SCHWARTZ
   Thresh                                   ... 2.500e-11
   Tcut                                     ... 2.500e-12
   Tpresel                                  ... 2.500e-12 
Coulomb Range Separation                    ... NOT USED
Exchange Range Separation                   ... NOT USED
Multipole approximations                    ... NOT USED
Finite Nucleus Model                        ... NOT USED
CABS basis                                  ... NOT available
Auxiliary Coulomb fitting basis             ... NOT available
Auxiliary J/K fitting basis                 ... NOT available
Auxiliary Correlation fitting basis         ... NOT available
Auxiliary 'external' fitting basis          ... NOT available

Checking pre-screening integrals            ... done (  0.0 sec) Dimension = 32
   => SHARK Basis and OBASIS are compatible. Storing Pre-screening
Shell pair information
Shell pair cut-off parameter TPreSel        ...   2.5e-12
Total number of shell pairs                 ...       528
Shell pairs after pre-screening             ...       527
Total number of primitive shell pairs       ...      1950
Primitive shell pairs kept                  ...      1660
          la=0 lb=0:    170 shell pairs
          la=1 lb=0:    198 shell pairs
          la=1 lb=1:     66 shell pairs
          la=2 lb=0:     54 shell pairs
          la=2 lb=1:     33 shell pairs
          la=2 lb=2:      6 shell pairs

Checking whether 4 symmetric matrices of dimension 66 fit in memory
:Max Core in MB      =   4000.00
 MB in use           =      1.78
 MB left             =   3998.22
 MB needed           =      0.07
 Data fit in memory  = YES
Calculating Nuclear repulsion               ... done (  0.0 sec) ENN=     79.226675620100 Eh

Diagonalization of the overlap matrix:
Smallest eigenvalue                        ... 4.214e-03
Time for diagonalization                   ...    0.000 sec
Threshold for overlap eigenvalues          ... 1.000e-07
Number of eigenvalues below threshold      ... 0
Time for construction of square roots      ...    0.000 sec
Total time needed                          ...    0.000 sec

-------------------
DFT GRID GENERATION
-------------------

General Integration Accuracy     IntAcc      ... 4.388
Radial Grid Type                 RadialGrid  ... OptM3 with GC (2021)
Angular Grid (max. ang.)         AngularGrid ... 4 (Lebedev-302)
Angular grid pruning method      GridPruning ... 4 (adaptive)
Weight generation scheme         WeightScheme... mBecke (2022)
Basis function cutoff            BFCut       ... 1.0000e-11
Integration weight cutoff        WCut        ... 1.0000e-14
Partially contracted basis set               ... off
Rotationally invariant grid construction     ... off
Angular grids for H and He will be reduced by one unit

Total number of grid points                  ...    33993
Total number of batches                      ...      536
Average number of points per batch           ...       63
Average number of grid points per atom       ...     4856
Grids setup in   0.1 sec
Initializing property integral containers    ... done (  0.0 sec)

SHARK setup successfully completed in   0.1 seconds

Maximum memory used throughout the entire STARTUP-calculation: 12.6 MB
Occupation numbers will be reassigned to an Aufbau configuration
             **** ENERGY FILE WAS UPDATED (oxiranyl_neb2.en.tmp) ****
Finished Guess after   0.0 sec
Maximum memory used throughout the entire GUESS-calculation: 4.4 MB
----------------------------------------D-I-I-S--------------------------------------------
Iteration    Energy (Eh)           Delta-E    RMSDP     MaxDP     DIISErr   Damp  Time(sec)
-------------------------------------------------------------------------------------------
               ***  Starting incremental Fock matrix formation  ***
                              *** Initializing SOSCF ***
---------------------------------------S-O-S-C-F--------------------------------------
Iteration    Energy (Eh)           Delta-E    RMSDP     MaxDP     MaxGrad    Time(sec)
--------------------------------------------------------------------------------------
    1    -160.4456118678237999     0.00e+00  1.02e-04  9.75e-04  1.24e-04     0.2
               *** Restarting incremental Fock matrix formation ***
    2    -160.4456210690716489    -9.20e-06  6.16e-05  4.60e-04  1.99e-04     0.2
    3    -160.4456236218270533    -2.55e-06  4.73e-05  4.63e-04  9.46e-05     0.2
    4    -160.4456241186175021    -4.97e-07  2.26e-05  3.19e-04  8.40e-05     0.2
    5    -160.4456241786198234    -6.00e-08  1.06e-05  1.14e-04  7.23e-05     0.2
    6    -160.4456242646464261    -8.60e-08  2.97e-06  2.91e-05  9.47e-06     0.2
    7    -160.4456242689880696    -4.34e-09  2.06e-06  2.55e-05  3.61e-06     0.2
                 **** Energy Check signals convergence ****

               *****************************************************
               *                     SUCCESS                       *
               *           SCF CONVERGED AFTER   7 CYCLES          *
               *****************************************************

             **** ENERGY FILE WAS UPDATED (oxiranyl_neb2.en.tmp) ****

----------------
TOTAL SCF ENERGY
----------------

Total Energy       :       -160.44562426979564 Eh           -4365.94740 eV

Components:
Nuclear Repulsion  :         79.22667562010038 Eh            2155.86745 eV
Electronic Energy  :       -239.67229988989604 Eh           -6521.81484 eV
One Electron Energy:       -375.48677107343184 Eh          -10217.51449 eV
Two Electron Energy:        135.81447118353580 Eh            3695.69965 eV

Virial components:
Potential Energy   :       -319.53392665115041 Eh           -8694.96019 eV
Kinetic Energy     :        159.08830238135479 Eh            4329.01279 eV
Virial Ratio       :          2.00853187737956

DFT components:
N(Alpha)           :       12.999956398198 electrons
N(Beta)            :       12.999956398198 electrons
N(Total)           :       25.999912796395 electrons
E(XC)              :      -10.764144325180 Eh       

---------------
SCF CONVERGENCE
---------------

  Last Energy change         ...    4.3416e-09  Tolerance :   1.0000e-08
  Last MAX-Density change    ...    2.5511e-05  Tolerance :   1.0000e-07
  Last RMS-Density change    ...    2.0577e-06  Tolerance :   5.0000e-09
  Last DIIS Error            ...    1.2334e-03  Tolerance :   5.0000e-07
  Last Orbital Gradient      ...    3.6084e-06  Tolerance :   1.0000e-05
  Last Orbital Rotation      ...    3.7727e-05  Tolerance :   1.0000e-05


Total SCF time: 0 days 0 hours 0 min 1 sec 
Finished LeanSCF after   1.3 sec

Maximum memory used throughout the entire LEANSCF-calculation: 7.2 MB

-------------------------   --------------------
FINAL SINGLE POINT ENERGY      -160.445624269796
-------------------------   --------------------

------------------------------------------------------------------------------
                         ORCA SCF GRADIENT CALCULATION
------------------------------------------------------------------------------

Nuc. rep. gradient        (SHARK) ... done (  0.0 sec)
HCore & Overlap gradient  (SHARK) ... done (  0.0 sec)
Two-electron gradient     (SHARK) ... done (  0.2 sec)
XC gradient                       ... done (  0.4 sec)

------------------
CARTESIAN GRADIENT
------------------

   1   Li  :    0.000025201    0.000108319   -0.000401989
   2   C   :    0.000723615   -0.000129464   -0.000223454
   3   C   :    0.000310899    0.000685951    0.001257411
   4   O   :   -0.000444760   -0.000395489   -0.000213262
   5   H   :   -0.000023225   -0.000149111    0.000321162
   6   H   :   -0.000205885    0.000395452   -0.000912258
   7   H   :   -0.000385844   -0.000515659    0.000172390

Difference to translation invariance:
           :   -0.0000000000    0.0000000000    0.0000000000

Difference to rotation invariance:
           :   -0.0004613778   -0.0003825376   -0.0025489446

Norm of the Cartesian gradient     ...    0.0022166759
RMS gradient                       ...    0.0004837183
MAX gradient                       ...    0.0012574110

-------
TIMINGS
-------

Total SCF gradient time     ....        0.625 sec

Densities                   ....       0.000 sec  (  0.0%)
One electron gradient       ....       0.005 sec  (  0.8%)
Two electron gradient       ....       0.238 sec  ( 38.1%)
XC gradient                 ....       0.382 sec  ( 61.1%)

Maximum memory used throughout the entire SCFGRAD-calculation: 12.9 MB
------------------------------------------------------------------------------
                         ORCA GEOMETRY RELAXATION STEP
------------------------------------------------------------------------------

Reading the OPT-File                    .... done
Getting information on internals        .... done
Copying old internal coords+grads       .... done
Making the new internal coordinates     .... (2022 redundants) done
Validating the new internal coordinates .... (2022 redundants) done
Calculating the B-matrix                .... done
Calculating the G,G- and P matrices     .... done
Transforming gradient to internals      .... done
Projecting the internal gradient        .... done
Number of atoms                         ....   7
Number of internal coordinates          ....  45
Current Energy                          ....  -160.445624270 Eh
Current gradient norm                   ....     0.002216676 Eh/bohr
Maximum allowed component of the step   ....  0.300
Current trust radius                    ....  0.338
Updating the Hessian (Bofill)           .... done
Diagonalizing the Hessian               .... done
Dimension of the hessian                ....  45
Lowest eigenvalues of the Hessian:
 -0.026845998  0.007513485  0.024833634  0.058188094  0.118005435
Hessian has   1 negative eigenvalues
Taking P-RFO step
Searching for lambda that maximizes along the lowest mode
TS mode is mode number   0 with eigenvalue  -0.02684600 and components:
   1.    0.08778892
   2.   -0.23118634
   3.   -0.06290784
   4.   -0.06865433
   5.    0.32822031
   6.    0.02010558
   7.   -0.00520897
   8.    0.01329113
   9.    0.07542824
  10.    0.08955075
  11.    0.00773380
  12.    0.02798813
  13.    0.01722640
  14.    0.18763158
  15.   -0.10943765
  16.    0.25811224
  17.    0.07748693
  18.    0.10170385
  19.    0.10726072
  20.    0.00100564
  21.    0.06079764
  22.    0.00908697
  23.   -0.24279406
  24.   -0.10371798
  25.    0.00083164
  26.   -0.10547506
  27.    0.15122986
  28.    0.05810001
  29.    0.20932987
  30.   -0.13039355
  31.   -0.30491859
  32.    0.14771327
  33.   -0.27810682
  34.    0.01365825
  35.   -0.16836327
  36.   -0.13655532
  37.    0.27810682
  38.    0.12307588
  39.   -0.04528739
  40.   -0.15001301
  41.   -0.26444857
  42.    0.05638809
  43.   -0.03466405
  44.    0.18060659
  45.   -0.17423115

Lambda that maximizes along the TS mode:       0.00000016
Searching for lambda that minimizes along all other modes
In cycle   1: lambdaN =  -0.00001588   step =   0.00001588
In cycle   2: lambdaN =  -0.00001588   step =   0.00000000
Lambda that minimizes along all other modes:  -0.00001588
The final length of the internal step   ....       0.0319
Converting the step to Cartesian space:
 Initial RMS(Int)=    0.0047537450
Transforming coordinates:
 Iter   0:  RMS(Cart)=    0.0047578776 RMS(Int)=    0.0047532497
done
Storing new coordinates                 .... done
The predicted energy change is          ....    -0.000007869
Previously predicted energy change      ....    -0.000011009
Actually observed energy change         ....    -0.000016492
Ratio of predicted to observed change   ....     1.498044624
New trust radius                        ....     0.337500000

                                .--------------------.
          ----------------------|Geometry convergence|-------------------------
          Item                value                   Tolerance       Converged
          ---------------------------------------------------------------------
          Energy change      -0.0000164923            0.0000050000      NO
          RMS gradient        0.0001801323            0.0001000000      NO
          MAX gradient        0.0003593008            0.0003000000      NO
          RMS step            0.0047537450            0.0020000000      NO
          MAX step            0.0122432798            0.0040000000      NO
          -------------------------------------------------------------------------
          ........................................................
          Max(Bonds)      0.0030      Max(Angles)    0.66
          Max(Dihed)        0.70      Max(Improp)    0.00
          ---------------------------------------------------------------------

The optimization has not yet converged - more geometry cycles are needed


    ---------------------------------------------------------------------------
                         Redundant Internal Coordinates
                            (Angstroem and degrees)

        Definition                    Value    dE/dq     Step     New-Value  comp.(TS mode)
    ----------------------------------------------------------------------------
     1. B(C   1,Li  0)                2.0815 -0.000289 -0.0002    2.0813   
     2. B(C   2,Li  0)                2.3700  0.000060  0.0030    2.3730   
     3. B(C   2,C   1)                1.4838  0.000136  0.0001    1.4839   
     4. B(O   3,C   2)                1.3722 -0.000075  0.0002    1.3724   
     5. B(O   3,C   1)                2.2275 -0.000020 -0.0019    2.2256          0.33
     6. B(O   3,Li  0)                1.7295  0.000261 -0.0004    1.7291   
     7. B(H   4,C   1)                1.1088 -0.000089  0.0001    1.1089   
     8. B(H   5,C   2)                1.1181  0.000004  0.0001    1.1182   
     9. B(H   6,C   2)                1.1268  0.000310 -0.0008    1.1260   
    10. A(C   1,Li  0,O   3)           70.85  0.000019   -0.06     70.79   
    11. A(C   1,Li  0,C   2)           38.25  0.000038   -0.04     38.22   
    12. A(C   2,Li  0,O   3)           34.88 -0.000023   -0.07     34.81   
    13. A(C   2,C   1,H   4)          113.31 -0.000163    0.11    113.42   
    14. A(Li  0,C   1,H   4)          153.49  0.000045   -0.36    153.13   
    15. A(Li  0,C   1,C   2)           81.46  0.000090    0.14     81.60   
    16. A(C   1,C   2,O   3)          102.44 -0.000043   -0.14    102.30          0.26
    17. A(Li  0,C   2,O   3)           46.12  0.000078   -0.12     46.00   
    18. A(Li  0,C   2,C   1)           60.29 -0.000128   -0.10     60.19   
    19. A(Li  0,C   2,H   5)          144.96  0.000330   -0.66    144.30   
    20. A(C   1,C   2,H   5)          112.25  0.000071   -0.12    112.13   
    21. A(O   3,C   2,H   5)          113.68  0.000286   -0.27    113.41   
    22. A(Li  0,C   2,H   6)          111.45 -0.000091    0.49    111.94   
    23. A(C   1,C   2,H   6)          108.40  0.000226    0.20    108.60   
    24. A(H   5,C   2,H   6)          103.39 -0.000238    0.17    103.56   
    25. A(O   3,C   2,H   6)          116.84 -0.000281    0.18    117.02   
    26. A(Li  0,O   3,C   2)           99.00 -0.000054    0.19     99.19   
    27. D(C   2,C   1,Li  0,O   3)    -15.81  0.000025    0.15    -15.66   
    28. D(H   4,C   1,Li  0,C   2)    126.53 -0.000148    0.17    126.70   
    29. D(H   4,C   1,Li  0,O   3)    110.72 -0.000122    0.32    111.05   
    30. D(H   5,C   2,Li  0,C   1)    -86.88  0.000269   -0.04    -86.92   
    31. D(O   3,C   2,C   1,H   4)   -137.61 -0.000016    0.05   -137.56          0.30
    32. D(H   5,C   2,Li  0,O   3)     66.38  0.000294    0.19     66.57   
    33. D(O   3,C   2,Li  0,C   1)   -153.25 -0.000025   -0.24   -153.49          0.28
    34. D(H   6,C   2,Li  0,O   3)   -107.17  0.000302    0.19   -106.98   
    35. D(Li  0,C   2,C   1,H   4)   -157.01 -0.000022    0.27   -156.74   
    36. D(O   3,C   2,C   1,Li  0)     19.40  0.000006   -0.22     19.18   
    37. D(C   1,C   2,Li  0,O   3)    153.25  0.000025    0.24    153.49          0.28
    38. D(H   5,C   2,C   1,Li  0)    141.73  0.000359   -0.70    141.02   
    39. D(H   5,C   2,C   1,H   4)    -15.29  0.000337   -0.43    -15.72   
    40. D(H   6,C   2,C   1,Li  0)   -104.71  0.000244   -0.45   -105.16   
    41. D(H   6,C   2,Li  0,C   1)     99.57  0.000277   -0.04     99.53          0.26
    42. D(Li  0,O   3,C   2,H   6)     94.70  0.000161    0.49     95.19   
    43. D(Li  0,O   3,C   2,H   5)   -144.94 -0.000152    0.63   -144.31   
    44. D(Li  0,O   3,C   2,C   1)    -23.60  0.000058    0.24    -23.35   
    45. D(C   2,O   3,Li  0,C   1)     17.16 -0.000002   -0.15     17.00   
    ----------------------------------------------------------------------------

Geometry step timings:
Preparation and reading OPT file:      0.000 s ( 2.335 %)
Internal coordinates            :      0.000 s ( 2.205 %)
B/P matrices and projection     :      0.000 s (15.694 %)
Hessian update/contruction      :      0.000 s (22.179 %)
Making the step                 :      0.000 s (22.957 %)
Converting the step to Cartesian:      0.000 s ( 2.594 %)
Storing new data                :      0.000 s ( 4.280 %)
Checking convergence            :      0.000 s ( 4.150 %)
Final printing                  :      0.000 s (23.606 %)
Total time                      :      0.001 s

Time for energy+gradient        :      2.258 s
Time for complete geometry iter :      2.295 s

         *************************************************************
         *                GEOMETRY OPTIMIZATION CYCLE   7            *
         *************************************************************
---------------------------------
CARTESIAN COORDINATES (ANGSTROEM)
---------------------------------
  Li     1.758978   -0.833791    0.424143
  C      0.601994    0.644950   -0.473838
  C     -0.497734   -0.203409    0.048573
  O      0.137332   -0.943627    1.014081
  H      0.302453    1.698740   -0.645200
  H     -1.348161    0.405722    0.443548
  H     -0.954862   -0.768585   -0.811308

----------------------------
CARTESIAN COORDINATES (A.U.)
----------------------------
  NO LB      ZA    FRAG     MASS         X           Y           Z
   0 Li    3.0000    0     6.941    3.323986   -1.575637    0.801514
   1 C     6.0000    0    12.011    1.137603    1.218780   -0.895424
   2 C     6.0000    0    12.011   -0.940582   -0.384387    0.091790
   3 O     8.0000    0    15.999    0.259520   -1.783197    1.916336
   4 H     1.0000    0     1.008    0.571554    3.210153   -1.219250
   5 H     1.0000    0     1.008   -2.547654    0.766704    0.838184
   6 H     1.0000    0     1.008   -1.804427   -1.452415   -1.533150

--------------------------------
INTERNAL COORDINATES (ANGSTROEM)
--------------------------------
 Li     0   0   0     0.000000000000     0.00000000     0.00000000
 C      1   0   0     2.081264017949     0.00000000     0.00000000
 C      2   1   0     1.483923329963    81.59843035     0.00000000
 O      3   2   1     1.372384477010   102.30357888    19.18411266
 H      2   1   3     1.108855613427   153.13379031   126.70087123
 H      3   2   1     1.118154995701   112.12095764   141.02514091
 H      3   2   1     1.125959337269   108.60170161   254.84201032

---------------------------
INTERNAL COORDINATES (A.U.)
---------------------------
 Li     0   0   0     0.000000000000     0.00000000     0.00000000
 C      1   0   0     3.933019006308     0.00000000     0.00000000
 C      2   1   0     2.804208697367    81.59843035     0.00000000
 O      3   2   1     2.593430811994   102.30357888    19.18411266
 H      2   1   3     2.095433431438   153.13379031   126.70087123
 H      3   2   1     2.113006717150   112.12095764   141.02514091
 H      3   2   1     2.127754785371   108.60170161   254.84201032

------------------------------------------------------------------------------
                   ___                                                        
                  /   \      - P O W E R E D   B Y -                         
                 /     \                                                     
                 |  |  |   _    _      __       _____    __    __             
                 |  |  |  | |  | |    /  \     |  _  \  |  |  /  |          
                  \  \/   | |  | |   /    \    | | | |  |  | /  /          
                 / \  \   | |__| |  /  /\  \   | |_| |  |  |/  /          
                |  |  |   |  __  | /  /__\  \  |    /   |      \           
                |  |  |   | |  | | |   __   |  |    \   |  |\   \          
                \     /   | |  | | |  |  |  |  | |\  \  |  | \   \       
                 \___/    |_|  |_| |__|  |__|  |_| \__\ |__|  \__/        
                                                                              
                      - O R C A' S   B I G   F R I E N D -                    
                                      &                                       
                       - I N T E G R A L  F E E D E R -                       
                                                                              
 v1 FN, 2020, v2 2021, v3 2022-2024                                           
------------------------------------------------------------------------------


----------------------
SHARK INTEGRAL PACKAGE
----------------------

Number of atoms                             ...      7
Number of basis functions                   ...     66
Number of shells                            ...     32
Maximum angular momentum                    ...      2
Integral batch strategy                     ... SHARK/LIBINT Hybrid
RI-J (if used) integral strategy            ... SPLIT-RIJ (Revised 2003 algorithm where possible)
Printlevel                                  ...      1
Contraction scheme used                     ... SEGMENTED contraction
Prescreening option                         ... SCHWARTZ
   Thresh                                   ... 2.500e-11
   Tcut                                     ... 2.500e-12
   Tpresel                                  ... 2.500e-12 
Coulomb Range Separation                    ... NOT USED
Exchange Range Separation                   ... NOT USED
Multipole approximations                    ... NOT USED
Finite Nucleus Model                        ... NOT USED
CABS basis                                  ... NOT available
Auxiliary Coulomb fitting basis             ... NOT available
Auxiliary J/K fitting basis                 ... NOT available
Auxiliary Correlation fitting basis         ... NOT available
Auxiliary 'external' fitting basis          ... NOT available

Checking pre-screening integrals            ... done (  0.0 sec) Dimension = 32
   => SHARK Basis and OBASIS are compatible. Storing Pre-screening
Shell pair information
Shell pair cut-off parameter TPreSel        ...   2.5e-12
Total number of shell pairs                 ...       528
Shell pairs after pre-screening             ...       527
Total number of primitive shell pairs       ...      1950
Primitive shell pairs kept                  ...      1659
          la=0 lb=0:    170 shell pairs
          la=1 lb=0:    198 shell pairs
          la=1 lb=1:     66 shell pairs
          la=2 lb=0:     54 shell pairs
          la=2 lb=1:     33 shell pairs
          la=2 lb=2:      6 shell pairs

Checking whether 4 symmetric matrices of dimension 66 fit in memory
:Max Core in MB      =   4000.00
 MB in use           =      1.78
 MB left             =   3998.22
 MB needed           =      0.07
 Data fit in memory  = YES
Calculating Nuclear repulsion               ... done (  0.0 sec) ENN=     79.230165650962 Eh

Diagonalization of the overlap matrix:
Smallest eigenvalue                        ... 4.209e-03
Time for diagonalization                   ...    0.000 sec
Threshold for overlap eigenvalues          ... 1.000e-07
Number of eigenvalues below threshold      ... 0
Time for construction of square roots      ...    0.000 sec
Total time needed                          ...    0.000 sec

-------------------
DFT GRID GENERATION
-------------------

General Integration Accuracy     IntAcc      ... 4.388
Radial Grid Type                 RadialGrid  ... OptM3 with GC (2021)
Angular Grid (max. ang.)         AngularGrid ... 4 (Lebedev-302)
Angular grid pruning method      GridPruning ... 4 (adaptive)
Weight generation scheme         WeightScheme... mBecke (2022)
Basis function cutoff            BFCut       ... 1.0000e-11
Integration weight cutoff        WCut        ... 1.0000e-14
Partially contracted basis set               ... off
Rotationally invariant grid construction     ... off
Angular grids for H and He will be reduced by one unit

Total number of grid points                  ...    33993
Total number of batches                      ...      536
Average number of points per batch           ...       63
Average number of grid points per atom       ...     4856
Grids setup in   0.1 sec
Initializing property integral containers    ... done (  0.0 sec)

SHARK setup successfully completed in   0.1 seconds

Maximum memory used throughout the entire STARTUP-calculation: 12.6 MB
Occupation numbers will be reassigned to an Aufbau configuration
             **** ENERGY FILE WAS UPDATED (oxiranyl_neb2.en.tmp) ****
Finished Guess after   0.0 sec
Maximum memory used throughout the entire GUESS-calculation: 4.4 MB
----------------------------------------D-I-I-S--------------------------------------------
Iteration    Energy (Eh)           Delta-E    RMSDP     MaxDP     DIISErr   Damp  Time(sec)
-------------------------------------------------------------------------------------------
               ***  Starting incremental Fock matrix formation  ***
                              *** Initializing SOSCF ***
---------------------------------------S-O-S-C-F--------------------------------------
Iteration    Energy (Eh)           Delta-E    RMSDP     MaxDP     MaxGrad    Time(sec)
--------------------------------------------------------------------------------------
    1    -160.4456234018197733     0.00e+00  9.37e-05  1.03e-03  1.05e-04     0.2
               *** Restarting incremental Fock matrix formation ***
    2    -160.4456311965219015    -7.79e-06  5.84e-05  4.52e-04  1.65e-04     0.2
    3    -160.4456333959027461    -2.20e-06  4.54e-05  4.17e-04  8.16e-05     0.2
    4    -160.4456338883445028    -4.92e-07  2.01e-05  2.83e-04  5.95e-05     0.2
    5    -160.4456339066896362    -1.83e-08  9.21e-06  1.09e-04  7.21e-05     0.2
    6    -160.4456339841504473    -7.75e-08  2.53e-06  2.19e-05  8.75e-06     0.2
    7    -160.4456339873125899    -3.16e-09  1.55e-06  1.59e-05  2.55e-06     0.2
                 **** Energy Check signals convergence ****

               *****************************************************
               *                     SUCCESS                       *
               *           SCF CONVERGED AFTER   7 CYCLES          *
               *****************************************************

             **** ENERGY FILE WAS UPDATED (oxiranyl_neb2.en.tmp) ****

----------------
TOTAL SCF ENERGY
----------------

Total Energy       :       -160.44563398768514 Eh           -4365.94766 eV

Components:
Nuclear Repulsion  :         79.23016565096198 Eh            2155.96241 eV
Electronic Energy  :       -239.67579963864711 Eh           -6521.91008 eV
One Electron Energy:       -375.49407240026022 Eh          -10217.71317 eV
Two Electron Energy:        135.81827276161312 Eh            3695.80309 eV

Virial components:
Potential Energy   :       -319.53422985429427 Eh           -8694.96844 eV
Kinetic Energy     :        159.08859586660915 Eh            4329.02078 eV
Virial Ratio       :          2.00853007793352

DFT components:
N(Alpha)           :       12.999958445597 electrons
N(Beta)            :       12.999958445597 electrons
N(Total)           :       25.999916891194 electrons
E(XC)              :      -10.764143822464 Eh       

---------------
SCF CONVERGENCE
---------------

  Last Energy change         ...    3.1621e-09  Tolerance :   1.0000e-08
  Last MAX-Density change    ...    1.5852e-05  Tolerance :   1.0000e-07
  Last RMS-Density change    ...    1.5451e-06  Tolerance :   5.0000e-09
  Last DIIS Error            ...    1.0801e-03  Tolerance :   5.0000e-07
  Last Orbital Gradient      ...    2.5472e-06  Tolerance :   1.0000e-05
  Last Orbital Rotation      ...    2.4581e-05  Tolerance :   1.0000e-05


Total SCF time: 0 days 0 hours 0 min 1 sec 
Finished LeanSCF after   1.3 sec

Maximum memory used throughout the entire LEANSCF-calculation: 7.2 MB

-------------------------   --------------------
FINAL SINGLE POINT ENERGY      -160.445633987685
-------------------------   --------------------

------------------------------------------------------------------------------
                         ORCA SCF GRADIENT CALCULATION
------------------------------------------------------------------------------

Nuc. rep. gradient        (SHARK) ... done (  0.0 sec)
HCore & Overlap gradient  (SHARK) ... done (  0.0 sec)
Two-electron gradient     (SHARK) ... done (  0.2 sec)
XC gradient                       ... done (  0.4 sec)

------------------
CARTESIAN GRADIENT
------------------

   1   Li  :    0.000013248    0.000204487   -0.000231381
   2   C   :    0.000476459   -0.000115283   -0.000099010
   3   C   :    0.000250747    0.000108594    0.000586882
   4   O   :   -0.000501021   -0.000253843   -0.000092616
   5   H   :    0.000136304   -0.000097727    0.000145027
   6   H   :   -0.000027861    0.000372239   -0.000456694
   7   H   :   -0.000347875   -0.000218467    0.000147793

Difference to translation invariance:
           :   -0.0000000000    0.0000000000   -0.0000000000

Difference to rotation invariance:
           :   -0.0004725293   -0.0005312403   -0.0025077524

Norm of the Cartesian gradient     ...    0.0012947678
RMS gradient                       ...    0.0002825415
MAX gradient                       ...    0.0005868817

-------
TIMINGS
-------

Total SCF gradient time     ....        0.621 sec

Densities                   ....       0.000 sec  (  0.0%)
One electron gradient       ....       0.005 sec  (  0.8%)
Two electron gradient       ....       0.238 sec  ( 38.3%)
XC gradient                 ....       0.378 sec  ( 60.9%)

Maximum memory used throughout the entire SCFGRAD-calculation: 12.9 MB
------------------------------------------------------------------------------
                         ORCA GEOMETRY RELAXATION STEP
------------------------------------------------------------------------------

Reading the OPT-File                    .... done
Getting information on internals        .... done
Copying old internal coords+grads       .... done
Making the new internal coordinates     .... (2022 redundants) done
Validating the new internal coordinates .... (2022 redundants) done
Calculating the B-matrix                .... done
Calculating the G,G- and P matrices     .... done
Transforming gradient to internals      .... done
Projecting the internal gradient        .... done
Number of atoms                         ....   7
Number of internal coordinates          ....  45
Current Energy                          ....  -160.445633988 Eh
Current gradient norm                   ....     0.001294768 Eh/bohr
Maximum allowed component of the step   ....  0.300
Current trust radius                    ....  0.338
Updating the Hessian (Bofill)           .... done
Diagonalizing the Hessian               .... done
Dimension of the hessian                ....  45
Lowest eigenvalues of the Hessian:
 -0.026678462  0.010318615  0.024570141  0.057108895  0.117931742
Hessian has   1 negative eigenvalues
Taking P-RFO step
Searching for lambda that maximizes along the lowest mode
TS mode is mode number   0 with eigenvalue  -0.02667846 and components:
   1.    0.08507428
   2.   -0.22371659
   3.   -0.06195400
   4.   -0.06846234
   5.    0.32414461
   6.    0.02008336
   7.   -0.00519678
   8.    0.01357198
   9.    0.07412841
  10.    0.08878268
  11.    0.00714811
  12.    0.02645900
  13.    0.01830811
  14.    0.17946498
  15.   -0.10570611
  16.    0.25513905
  17.    0.07510438
  18.    0.09855800
  19.    0.09360140
  20.   -0.00285408
  21.    0.05787387
  22.    0.02085536
  23.   -0.23637961
  24.   -0.10178983
  25.    0.00254374
  26.   -0.10156338
  27.    0.15597708
  28.    0.05964140
  29.    0.21561848
  30.   -0.12709700
  31.   -0.30453141
  32.    0.15845666
  33.   -0.28555366
  34.    0.02179306
  35.   -0.16163793
  36.   -0.14289348
  37.    0.28555366
  38.    0.10914563
  39.   -0.05249230
  40.   -0.15990804
  41.   -0.26376060
  42.    0.07077398
  43.   -0.01868241
  44.    0.18821375
  45.   -0.17895411

Lambda that maximizes along the TS mode:       0.00000008
Searching for lambda that minimizes along all other modes
In cycle   1: lambdaN =  -0.00000337   step =   0.00000337
In cycle   2: lambdaN =  -0.00000337   step =   0.00000000
Lambda that minimizes along all other modes:  -0.00000337
The final length of the internal step   ....       0.0080
Converting the step to Cartesian space:
 Initial RMS(Int)=    0.0011926834
Transforming coordinates:
 Iter   0:  RMS(Cart)=    0.0011245349 RMS(Int)=    0.0011917796
done
Storing new coordinates                 .... done
The predicted energy change is          ....    -0.000001649
Previously predicted energy change      ....    -0.000007869
Actually observed energy change         ....    -0.000009718
Ratio of predicted to observed change   ....     1.234894349
New trust radius                        ....     0.506250000

                                .--------------------.
          ----------------------|Geometry convergence|-------------------------
          Item                value                   Tolerance       Converged
          ---------------------------------------------------------------------
          Energy change      -0.0000097179            0.0000050000      NO
          RMS gradient        0.0001096146            0.0001000000      NO
          MAX gradient        0.0002593668            0.0003000000      YES
          RMS step            0.0011926834            0.0020000000      YES
          MAX step            0.0031800425            0.0040000000      YES
          -------------------------------------------------------------------------
          ........................................................
          Max(Bonds)      0.0009      Max(Angles)    0.16
          Max(Dihed)        0.18      Max(Improp)    0.00
          ---------------------------------------------------------------------

The optimization has not yet converged - more geometry cycles are needed


    ---------------------------------------------------------------------------
                         Redundant Internal Coordinates
                            (Angstroem and degrees)

        Definition                    Value    dE/dq     Step     New-Value  comp.(TS mode)
    ----------------------------------------------------------------------------
     1. B(C   1,Li  0)                2.0813 -0.000259  0.0004    2.0817   
     2. B(C   2,Li  0)                2.3730  0.000001  0.0009    2.3740   
     3. B(C   2,C   1)                1.4839  0.000153 -0.0001    1.4838   
     4. B(O   3,C   2)                1.3724 -0.000117  0.0002    1.3725   
     5. B(O   3,C   1)                2.2256  0.000016 -0.0008    2.2248          0.32
     6. B(O   3,Li  0)                1.7291  0.000244 -0.0003    1.7288   
     7. B(H   4,C   1)                1.1089 -0.000056  0.0000    1.1089   
     8. B(H   5,C   2)                1.1182  0.000013 -0.0000    1.1181   
     9. B(H   6,C   2)                1.1260  0.000160 -0.0002    1.1257   
    10. A(C   1,Li  0,O   3)           70.79  0.000027   -0.03     70.76   
    11. A(C   1,Li  0,C   2)           38.22  0.000049   -0.02     38.20   
    12. A(C   2,Li  0,O   3)           34.81 -0.000024   -0.02     34.80   
    13. A(C   2,C   1,H   4)          113.42 -0.000067    0.05    113.47   
    14. A(Li  0,C   1,H   4)          153.13 -0.000013   -0.08    153.06   
    15. A(Li  0,C   1,C   2)           81.60  0.000053    0.03     81.63   
    16. A(C   1,C   2,O   3)          102.30 -0.000010   -0.05    102.25          0.26
    17. A(Li  0,C   2,O   3)           46.00  0.000088   -0.04     45.95   
    18. A(Li  0,C   2,C   1)           60.19 -0.000102   -0.01     60.17   
    19. A(Li  0,C   2,H   5)          144.30  0.000121   -0.16    144.14   
    20. A(C   1,C   2,H   5)          112.12  0.000021    0.02    112.14   
    21. A(O   3,C   2,H   5)          113.41  0.000098   -0.11    113.30   
    22. A(Li  0,C   2,H   6)          111.94  0.000019    0.08    112.02   
    23. A(C   1,C   2,H   6)          108.60  0.000168    0.02    108.62   
    24. A(H   5,C   2,H   6)          103.56 -0.000137    0.07    103.63   
    25. A(O   3,C   2,H   6)          117.03 -0.000124    0.06    117.09   
    26. A(Li  0,O   3,C   2)           99.19 -0.000063    0.06     99.25   
    27. D(C   2,C   1,Li  0,O   3)    -15.66  0.000023    0.01    -15.65   
    28. D(H   4,C   1,Li  0,C   2)    126.70 -0.000063    0.10    126.80   
    29. D(H   4,C   1,Li  0,O   3)    111.05 -0.000040    0.10    111.15   
    30. D(H   5,C   2,Li  0,C   1)    -86.92  0.000185   -0.12    -87.04   
    31. D(O   3,C   2,C   1,H   4)   -137.56  0.000034    0.02   -137.54          0.30
    32. D(H   5,C   2,Li  0,O   3)     66.57  0.000204   -0.11     66.46   
    33. D(O   3,C   2,Li  0,C   1)   -153.49 -0.000019   -0.00   -153.49          0.29
    34. D(H   6,C   2,Li  0,O   3)   -106.98  0.000179   -0.02   -107.00   
    35. D(Li  0,C   2,C   1,H   4)   -156.74  0.000019    0.04   -156.70   
    36. D(O   3,C   2,C   1,Li  0)     19.18  0.000015   -0.02     19.16   
    37. D(C   1,C   2,Li  0,O   3)    153.49  0.000019    0.00    153.49          0.29
    38. D(H   5,C   2,C   1,Li  0)    141.03  0.000137   -0.18    140.84   
    39. D(H   5,C   2,C   1,H   4)    -15.72  0.000156   -0.14    -15.86   
    40. D(H   6,C   2,C   1,Li  0)   -105.16  0.000083   -0.08   -105.24   
    41. D(H   6,C   2,Li  0,C   1)     99.53  0.000160   -0.02     99.51          0.26
    42. D(Li  0,O   3,C   2,H   6)     95.19  0.000179    0.03     95.22   
    43. D(Li  0,O   3,C   2,H   5)   -144.31 -0.000026    0.09   -144.22   
    44. D(Li  0,O   3,C   2,C   1)    -23.35  0.000043    0.01    -23.34   
    45. D(C   2,O   3,Li  0,C   1)     17.00  0.000004   -0.01     17.00   
    ----------------------------------------------------------------------------

Geometry step timings:
Preparation and reading OPT file:      0.000 s ( 1.833 %)
Internal coordinates            :      0.000 s ( 1.731 %)
B/P matrices and projection     :      0.000 s (12.424 %)
Hessian update/contruction      :      0.000 s (16.395 %)
Making the step                 :      0.000 s (40.326 %)
Converting the step to Cartesian:      0.000 s ( 1.935 %)
Storing new data                :      0.000 s ( 3.259 %)
Checking convergence            :      0.000 s ( 3.259 %)
Final printing                  :      0.000 s (18.839 %)
Total time                      :      0.001 s

Time for energy+gradient        :      2.242 s
Time for complete geometry iter :      2.281 s

         *************************************************************
         *                GEOMETRY OPTIMIZATION CYCLE   8            *
         *************************************************************
---------------------------------
CARTESIAN COORDINATES (ANGSTROEM)
---------------------------------
  Li     1.759393   -0.833332    0.425255
  C      0.601650    0.644639   -0.474007
  C     -0.498200   -0.203677    0.047805
  O      0.137494   -0.943294    1.013588
  H      0.303093    1.698717   -0.645560
  H     -1.347803    0.405161    0.444980
  H     -0.955627   -0.768214   -0.812061

----------------------------
CARTESIAN COORDINATES (A.U.)
----------------------------
  NO LB      ZA    FRAG     MASS         X           Y           Z
   0 Li    3.0000    0     6.941    3.324771   -1.574769    0.803615
   1 C     6.0000    0    12.011    1.136954    1.218191   -0.895744
   2 C     6.0000    0    12.011   -0.941462   -0.384894    0.090339
   3 O     8.0000    0    15.999    0.259826   -1.782568    1.915404
   4 H     1.0000    0     1.008    0.572763    3.210109   -1.219932
   5 H     1.0000    0     1.008   -2.546979    0.765644    0.840890
   6 H     1.0000    0     1.008   -1.805874   -1.451714   -1.534572

--------------------------------
INTERNAL COORDINATES (ANGSTROEM)
--------------------------------
 Li     0   0   0     0.000000000000     0.00000000     0.00000000
 C      1   0   0     2.081691236052     0.00000000     0.00000000
 C      2   1   0     1.483778759360    81.62865934     0.00000000
 O      3   2   1     1.372544095731   102.25309520    19.16276709
 H      2   1   3     1.108894099265   153.05702334   126.79754090
 H      3   2   1     1.118149200298   112.13771187   140.84196317
 H      3   2   1     1.125748922804   108.61958746   254.76419243

---------------------------
INTERNAL COORDINATES (A.U.)
---------------------------
 Li     0   0   0     0.000000000000     0.00000000     0.00000000
 C      1   0   0     3.933826331523     0.00000000     0.00000000
 C      2   1   0     2.803935498519    81.62865934     0.00000000
 O      3   2   1     2.593732447663   102.25309520    19.16276709
 H      2   1   3     2.095506159133   153.05702334   126.79754090
 H      3   2   1     2.112995765427   112.13771187   140.84196317
 H      3   2   1     2.127357159657   108.61958746   254.76419243

------------------------------------------------------------------------------
                   ___                                                        
                  /   \      - P O W E R E D   B Y -                         
                 /     \                                                     
                 |  |  |   _    _      __       _____    __    __             
                 |  |  |  | |  | |    /  \     |  _  \  |  |  /  |          
                  \  \/   | |  | |   /    \    | | | |  |  | /  /          
                 / \  \   | |__| |  /  /\  \   | |_| |  |  |/  /          
                |  |  |   |  __  | /  /__\  \  |    /   |      \           
                |  |  |   | |  | | |   __   |  |    \   |  |\   \          
                \     /   | |  | | |  |  |  |  | |\  \  |  | \   \       
                 \___/    |_|  |_| |__|  |__|  |_| \__\ |__|  \__/        
                                                                              
                      - O R C A' S   B I G   F R I E N D -                    
                                      &                                       
                       - I N T E G R A L  F E E D E R -                       
                                                                              
 v1 FN, 2020, v2 2021, v3 2022-2024                                           
------------------------------------------------------------------------------


----------------------
SHARK INTEGRAL PACKAGE
----------------------

Number of atoms                             ...      7
Number of basis functions                   ...     66
Number of shells                            ...     32
Maximum angular momentum                    ...      2
Integral batch strategy                     ... SHARK/LIBINT Hybrid
RI-J (if used) integral strategy            ... SPLIT-RIJ (Revised 2003 algorithm where possible)
Printlevel                                  ...      1
Contraction scheme used                     ... SEGMENTED contraction
Prescreening option                         ... SCHWARTZ
   Thresh                                   ... 2.500e-11
   Tcut                                     ... 2.500e-12
   Tpresel                                  ... 2.500e-12 
Coulomb Range Separation                    ... NOT USED
Exchange Range Separation                   ... NOT USED
Multipole approximations                    ... NOT USED
Finite Nucleus Model                        ... NOT USED
CABS basis                                  ... NOT available
Auxiliary Coulomb fitting basis             ... NOT available
Auxiliary J/K fitting basis                 ... NOT available
Auxiliary Correlation fitting basis         ... NOT available
Auxiliary 'external' fitting basis          ... NOT available

Checking pre-screening integrals            ... done (  0.0 sec) Dimension = 32
   => SHARK Basis and OBASIS are compatible. Storing Pre-screening
Shell pair information
Shell pair cut-off parameter TPreSel        ...   2.5e-12
Total number of shell pairs                 ...       528
Shell pairs after pre-screening             ...       527
Total number of primitive shell pairs       ...      1950
Primitive shell pairs kept                  ...      1659
          la=0 lb=0:    170 shell pairs
          la=1 lb=0:    198 shell pairs
          la=1 lb=1:     66 shell pairs
          la=2 lb=0:     54 shell pairs
          la=2 lb=1:     33 shell pairs
          la=2 lb=2:      6 shell pairs

Checking whether 4 symmetric matrices of dimension 66 fit in memory
:Max Core in MB      =   4000.00
 MB in use           =      1.78
 MB left             =   3998.22
 MB needed           =      0.07
 Data fit in memory  = YES
Calculating Nuclear repulsion               ... done (  0.0 sec) ENN=     79.232281335703 Eh

Diagonalization of the overlap matrix:
Smallest eigenvalue                        ... 4.206e-03
Time for diagonalization                   ...    0.000 sec
Threshold for overlap eigenvalues          ... 1.000e-07
Number of eigenvalues below threshold      ... 0
Time for construction of square roots      ...    0.000 sec
Total time needed                          ...    0.001 sec

-------------------
DFT GRID GENERATION
-------------------

General Integration Accuracy     IntAcc      ... 4.388
Radial Grid Type                 RadialGrid  ... OptM3 with GC (2021)
Angular Grid (max. ang.)         AngularGrid ... 4 (Lebedev-302)
Angular grid pruning method      GridPruning ... 4 (adaptive)
Weight generation scheme         WeightScheme... mBecke (2022)
Basis function cutoff            BFCut       ... 1.0000e-11
Integration weight cutoff        WCut        ... 1.0000e-14
Partially contracted basis set               ... off
Rotationally invariant grid construction     ... off
Angular grids for H and He will be reduced by one unit

Total number of grid points                  ...    33994
Total number of batches                      ...      536
Average number of points per batch           ...       63
Average number of grid points per atom       ...     4856
Grids setup in   0.1 sec
Initializing property integral containers    ... done (  0.0 sec)

SHARK setup successfully completed in   0.1 seconds

Maximum memory used throughout the entire STARTUP-calculation: 12.6 MB
Occupation numbers will be reassigned to an Aufbau configuration
             **** ENERGY FILE WAS UPDATED (oxiranyl_neb2.en.tmp) ****
Finished Guess after   0.0 sec
Maximum memory used throughout the entire GUESS-calculation: 4.4 MB
----------------------------------------D-I-I-S--------------------------------------------
Iteration    Energy (Eh)           Delta-E    RMSDP     MaxDP     DIISErr   Damp  Time(sec)
-------------------------------------------------------------------------------------------
               ***  Starting incremental Fock matrix formation  ***
                              *** Initializing SOSCF ***
---------------------------------------S-O-S-C-F--------------------------------------
Iteration    Energy (Eh)           Delta-E    RMSDP     MaxDP     MaxGrad    Time(sec)
--------------------------------------------------------------------------------------
    1    -160.4456357437460952     0.00e+00  2.82e-05  3.34e-04  3.69e-05     0.2
               *** Restarting incremental Fock matrix formation ***
    2    -160.4456363647638568    -6.21e-07  1.73e-05  1.68e-04  5.22e-05     0.2
    3    -160.4456365148838586    -1.50e-07  1.19e-05  1.23e-04  2.62e-05     0.2
    4    -160.4456365461908831    -3.13e-08  4.28e-06  5.76e-05  1.38e-05     0.2
    5    -160.4456365473012056    -1.11e-09  1.82e-06  2.55e-05  1.47e-05     0.2
                 **** Energy Check signals convergence ****

               *****************************************************
               *                     SUCCESS                       *
               *           SCF CONVERGED AFTER   5 CYCLES          *
               *****************************************************

             **** ENERGY FILE WAS UPDATED (oxiranyl_neb2.en.tmp) ****

----------------
TOTAL SCF ENERGY
----------------

Total Energy       :       -160.44563655072960 Eh           -4365.94773 eV

Components:
Nuclear Repulsion  :         79.23228133570306 Eh            2156.01999 eV
Electronic Energy  :       -239.67791788643268 Eh           -6521.96772 eV
One Electron Energy:       -375.49859487718612 Eh          -10217.83623 eV
Two Electron Energy:        135.82067699075344 Eh            3695.86852 eV

Virial components:
Potential Energy   :       -319.53441000406985 Eh           -8694.97334 eV
Kinetic Energy     :        159.08877345334028 Eh            4329.02561 eV
Virial Ratio       :          2.00852896824795

DFT components:
N(Alpha)           :       12.999958348162 electrons
N(Beta)            :       12.999958348162 electrons
N(Total)           :       25.999916696324 electrons
E(XC)              :      -10.764151284665 Eh       

---------------
SCF CONVERGENCE
---------------

  Last Energy change         ...    1.1103e-09  Tolerance :   1.0000e-08
  Last MAX-Density change    ...    2.5478e-05  Tolerance :   1.0000e-07
  Last RMS-Density change    ...    1.8216e-06  Tolerance :   5.0000e-09
  Last DIIS Error            ...    1.9457e-04  Tolerance :   5.0000e-07
  Last Orbital Gradient      ...    1.4725e-05  Tolerance :   1.0000e-05
  Last Orbital Rotation      ...    1.4924e-05  Tolerance :   1.0000e-05


Total SCF time: 0 days 0 hours 0 min 0 sec 
Finished LeanSCF after   1.0 sec

Maximum memory used throughout the entire LEANSCF-calculation: 7.2 MB

-------------------------   --------------------
FINAL SINGLE POINT ENERGY      -160.445636550730
-------------------------   --------------------

------------------------------------------------------------------------------
                         ORCA SCF GRADIENT CALCULATION
------------------------------------------------------------------------------

Nuc. rep. gradient        (SHARK) ... done (  0.0 sec)
HCore & Overlap gradient  (SHARK) ... done (  0.0 sec)
Two-electron gradient     (SHARK) ... done (  0.2 sec)
XC gradient                       ... done (  0.4 sec)

------------------
CARTESIAN GRADIENT
------------------

   1   Li  :   -0.000004085    0.000188418   -0.000168476
   2   C   :    0.000339561   -0.000135377   -0.000023445
   3   C   :    0.000240048   -0.000012532    0.000298465
   4   O   :   -0.000485140   -0.000175169   -0.000025933
   5   H   :    0.000183146   -0.000083493    0.000061666
   6   H   :    0.000030412    0.000328134   -0.000255145
   7   H   :   -0.000303942   -0.000109981    0.000112867

Difference to translation invariance:
           :    0.0000000000    0.0000000000    0.0000000000

Difference to rotation invariance:
           :   -0.0004757262   -0.0005532434   -0.0024910728

Norm of the Cartesian gradient     ...    0.0009730809
RMS gradient                       ...    0.0002123437
MAX gradient                       ...    0.0004851397

-------
TIMINGS
-------

Total SCF gradient time     ....        0.626 sec

Densities                   ....       0.000 sec  (  0.0%)
One electron gradient       ....       0.005 sec  (  0.8%)
Two electron gradient       ....       0.237 sec  ( 37.9%)
XC gradient                 ....       0.383 sec  ( 61.3%)

Maximum memory used throughout the entire SCFGRAD-calculation: 12.9 MB
------------------------------------------------------------------------------
                         ORCA GEOMETRY RELAXATION STEP
------------------------------------------------------------------------------

Reading the OPT-File                    .... done
Getting information on internals        .... done
Copying old internal coords+grads       .... done
Making the new internal coordinates     .... (2022 redundants) done
Validating the new internal coordinates .... (2022 redundants) done
Calculating the B-matrix                .... done
Calculating the G,G- and P matrices     .... done
Transforming gradient to internals      .... done
Projecting the internal gradient        .... done
Number of atoms                         ....   7
Number of internal coordinates          ....  45
Current Energy                          ....  -160.445636551 Eh
Current gradient norm                   ....     0.000973081 Eh/bohr
Maximum allowed component of the step   ....  0.300
Current trust radius                    ....  0.506

(DQ * DQ)^2 = 0.00000000070706     Bofill update is skipped
Updating the Hessian (Bofill)           .... 
(DQ * DQ)^2 = 0.00000000409447     Bofill update is skipped
done
Diagonalizing the Hessian               .... done
Dimension of the hessian                ....  45
Lowest eigenvalues of the Hessian:
 -0.026678462  0.010318615  0.024570141  0.057108895  0.117931742
Hessian has   1 negative eigenvalues
Taking P-RFO step
Searching for lambda that maximizes along the lowest mode
TS mode is mode number   0 with eigenvalue  -0.02667846 and components:
   1.    0.08507428
   2.   -0.22371659
   3.   -0.06195400
   4.   -0.06846234
   5.    0.32414461
   6.    0.02008336
   7.   -0.00519678
   8.    0.01357198
   9.    0.07412841
  10.    0.08878268
  11.    0.00714811
  12.    0.02645900
  13.    0.01830811
  14.    0.17946498
  15.   -0.10570611
  16.    0.25513905
  17.    0.07510438
  18.    0.09855800
  19.    0.09360140
  20.   -0.00285408
  21.    0.05787387
  22.    0.02085536
  23.   -0.23637961
  24.   -0.10178983
  25.    0.00254374
  26.   -0.10156338
  27.    0.15597708
  28.    0.05964140
  29.    0.21561848
  30.   -0.12709700
  31.   -0.30453141
  32.    0.15845666
  33.   -0.28555366
  34.    0.02179306
  35.   -0.16163793
  36.   -0.14289348
  37.    0.28555366
  38.    0.10914563
  39.   -0.05249230
  40.   -0.15990804
  41.   -0.26376060
  42.    0.07077398
  43.   -0.01868241
  44.    0.18821375
  45.   -0.17895411

Lambda that maximizes along the TS mode:       0.00000003
Searching for lambda that minimizes along all other modes
In cycle   1: lambdaN =  -0.00000158   step =   0.00000158
In cycle   2: lambdaN =  -0.00000158   step =   0.00000000
Lambda that minimizes along all other modes:  -0.00000158
The final length of the internal step   ....       0.0049
Converting the step to Cartesian space:
 Initial RMS(Int)=    0.0007237465
Transforming coordinates:
 Iter   0:  RMS(Cart)=    0.0006333248 RMS(Int)=    0.0007237057
done
Storing new coordinates                 .... done
The predicted energy change is          ....    -0.000000774
Previously predicted energy change      ....    -0.000001649
Actually observed energy change         ....    -0.000002563
Ratio of predicted to observed change   ....     1.554254289
New trust radius                        ....     0.337500000

                                .--------------------.
          ----------------------|Geometry convergence|-------------------------
          Item                value                   Tolerance       Converged
          ---------------------------------------------------------------------
          Energy change      -0.0000025630            0.0000050000      YES
          RMS gradient        0.0000823056            0.0001000000      YES
          MAX gradient        0.0002275986            0.0003000000      YES
          RMS step            0.0007237465            0.0020000000      YES
          MAX step            0.0024092637            0.0040000000      YES
          -------------------------------------------------------------------------
          ........................................................
          Max(Bonds)      0.0005      Max(Angles)    0.06
          Max(Dihed)        0.14      Max(Improp)    0.00
          ---------------------------------------------------------------------

                    ***********************HURRAY********************
                    ***        THE OPTIMIZATION HAS CONVERGED     ***
                    *************************************************


    ---------------------------------------------------------------------------
                         Redundant Internal Coordinates

                          --- Optimized Parameters ---  
                            (Angstroem and degrees)

        Definition                    OldVal   dE/dq     Step     FinalVal  comp.(TS mode)
    ----------------------------------------------------------------------------
     1. B(C   1,Li  0)                2.0817 -0.000228  0.0005    2.0822   
     2. B(C   2,Li  0)                2.3740 -0.000024  0.0000    2.3740   
     3. B(C   2,C   1)                1.4838  0.000108 -0.0001    1.4837   
     4. B(O   3,C   2)                1.3725 -0.000109  0.0001    1.3726   
     5. B(O   3,C   1)                2.2248  0.000017 -0.0001    2.2247          0.32
     6. B(O   3,Li  0)                1.7288  0.000221 -0.0002    1.7287   
     7. B(H   4,C   1)                1.1089 -0.000043  0.0000    1.1089   
     8. B(H   5,C   2)                1.1181  0.000016 -0.0000    1.1181   
     9. B(H   6,C   2)                1.1257  0.000114 -0.0000    1.1257   
    10. A(C   1,Li  0,O   3)           70.76  0.000023   -0.01     70.74   
    11. A(C   1,Li  0,C   2)           38.20  0.000039   -0.01     38.19   
    12. A(C   2,Li  0,O   3)           34.80 -0.000018    0.00     34.80   
    13. A(C   2,C   1,H   4)          113.47 -0.000038    0.01    113.48   
    14. A(Li  0,C   1,H   4)          153.06 -0.000024    0.02    153.08   
    15. A(Li  0,C   1,C   2)           81.63  0.000042   -0.01     81.62   
    16. A(C   1,C   2,O   3)          102.25  0.000008   -0.01    102.25          0.26
    17. A(Li  0,C   2,O   3)           45.95  0.000087   -0.01     45.95   
    18. A(Li  0,C   2,C   1)           60.17 -0.000081    0.02     60.19   
    19. A(Li  0,C   2,H   5)          144.15  0.000046    0.04    144.18   
    20. A(C   1,C   2,H   5)          112.14  0.000007    0.04    112.18   
    21. A(O   3,C   2,H   5)          113.29  0.000022   -0.02    113.27   
    22. A(Li  0,C   2,H   6)          112.02  0.000042   -0.06    111.96   
    23. A(C   1,C   2,H   6)          108.62  0.000129   -0.04    108.58   
    24. A(H   5,C   2,H   6)          103.63 -0.000086    0.02    103.64   
    25. A(O   3,C   2,H   6)          117.09 -0.000068    0.01    117.10   
    26. A(Li  0,O   3,C   2)           99.25 -0.000070    0.01     99.26   
    27. D(C   2,C   1,Li  0,O   3)    -15.65  0.000018   -0.03    -15.68   
    28. D(H   4,C   1,Li  0,C   2)    126.80 -0.000030    0.03    126.83   
    29. D(H   4,C   1,Li  0,O   3)    111.15 -0.000012    0.00    111.15   
    30. D(H   5,C   2,Li  0,C   1)    -87.03  0.000131   -0.08    -87.12   
    31. D(O   3,C   2,C   1,H   4)   -137.54  0.000043    0.00   -137.53          0.30
    32. D(H   5,C   2,Li  0,O   3)     66.46  0.000146   -0.14     66.32   
    33. D(O   3,C   2,Li  0,C   1)   -153.49 -0.000015    0.05   -153.44          0.29
    34. D(H   6,C   2,Li  0,O   3)   -107.00  0.000121   -0.07   -107.06   
    35. D(Li  0,C   2,C   1,H   4)   -156.70  0.000023   -0.03   -156.73   
    36. D(O   3,C   2,C   1,Li  0)     19.16  0.000020    0.03     19.20   
    37. D(C   1,C   2,Li  0,O   3)    153.49  0.000015   -0.05    153.44          0.29
    38. D(H   5,C   2,C   1,Li  0)    140.84  0.000055    0.03    140.87   
    39. D(H   5,C   2,C   1,H   4)    -15.86  0.000078   -0.00    -15.86   
    40. D(H   6,C   2,C   1,Li  0)   -105.24  0.000031    0.04   -105.19   
    41. D(H   6,C   2,Li  0,C   1)     99.51  0.000106   -0.01     99.50          0.26
    42. D(Li  0,O   3,C   2,H   6)     95.22  0.000162   -0.10     95.12   
    43. D(Li  0,O   3,C   2,H   5)   -144.23  0.000007   -0.09   -144.31   
    44. D(Li  0,O   3,C   2,C   1)    -23.34  0.000032   -0.05    -23.39   
    45. D(C   2,O   3,Li  0,C   1)     17.00  0.000004    0.03     17.03   
    ----------------------------------------------------------------------------

Geometry step timings:
Preparation and reading OPT file:      0.000 s ( 2.494 %)
Internal coordinates            :      0.000 s ( 2.494 %)
B/P matrices and projection     :      0.000 s (14.512 %)
Hessian update/contruction      :      0.000 s (19.161 %)
Making the step                 :      0.000 s (23.696 %)
Converting the step to Cartesian:      0.000 s ( 2.608 %)
Storing new data                :      0.000 s ( 3.855 %)
Checking convergence            :      0.000 s ( 4.875 %)
Final printing                  :      0.000 s (26.190 %)
Total time                      :      0.001 s
                 *******************************************************
                 *** FINAL ENERGY EVALUATION AT THE STATIONARY POINT ***
                 ***               (AFTER    8 CYCLES)               ***
                 *******************************************************
------------------------------------------------------------------------------
                             ORCA STARTUP CALCULATIONS
------------------------------------------------------------------------------
------------------------------------------------------------------------------
                   ___                                                        
                  /   \      - P O W E R E D   B Y -                         
                 /     \                                                     
                 |  |  |   _    _      __       _____    __    __             
                 |  |  |  | |  | |    /  \     |  _  \  |  |  /  |          
                  \  \/   | |  | |   /    \    | | | |  |  | /  /          
                 / \  \   | |__| |  /  /\  \   | |_| |  |  |/  /          
                |  |  |   |  __  | /  /__\  \  |    /   |      \           
                |  |  |   | |  | | |   __   |  |    \   |  |\   \          
                \     /   | |  | | |  |  |  |  | |\  \  |  | \   \       
                 \___/    |_|  |_| |__|  |__|  |_| \__\ |__|  \__/        
                                                                              
                      - O R C A' S   B I G   F R I E N D -                    
                                      &                                       
                       - I N T E G R A L  F E E D E R -                       
                                                                              
 v1 FN, 2020, v2 2021, v3 2022-2024                                           
------------------------------------------------------------------------------


----------------------
SHARK INTEGRAL PACKAGE
----------------------

Number of atoms                             ...      7
Number of basis functions                   ...     66
Number of shells                            ...     32
Maximum angular momentum                    ...      2
Integral batch strategy                     ... SHARK/LIBINT Hybrid
RI-J (if used) integral strategy            ... SPLIT-RIJ (Revised 2003 algorithm where possible)
Printlevel                                  ...      1
Contraction scheme used                     ... SEGMENTED contraction
Prescreening option                         ... SCHWARTZ
   Thresh                                   ... 2.500e-11
   Tcut                                     ... 2.500e-12
   Tpresel                                  ... 2.500e-12 
Coulomb Range Separation                    ... NOT USED
Exchange Range Separation                   ... NOT USED
Multipole approximations                    ... NOT USED
Finite Nucleus Model                        ... NOT USED
CABS basis                                  ... NOT available
Auxiliary Coulomb fitting basis             ... NOT available
Auxiliary J/K fitting basis                 ... NOT available
Auxiliary Correlation fitting basis         ... NOT available
Auxiliary 'external' fitting basis          ... NOT available

Checking pre-screening integrals            ... done (  0.0 sec) Dimension = 32
   => SHARK Basis and OBASIS are compatible. Storing Pre-screening
Shell pair information
Shell pair cut-off parameter TPreSel        ...   2.5e-12
Total number of shell pairs                 ...       528
Shell pairs after pre-screening             ...       527
Total number of primitive shell pairs       ...      1950
Primitive shell pairs kept                  ...      1659
          la=0 lb=0:    170 shell pairs
          la=1 lb=0:    198 shell pairs
          la=1 lb=1:     66 shell pairs
          la=2 lb=0:     54 shell pairs
          la=2 lb=1:     33 shell pairs
          la=2 lb=2:      6 shell pairs

Checking whether 4 symmetric matrices of dimension 66 fit in memory
:Max Core in MB      =   4000.00
 MB in use           =      1.78
 MB left             =   3998.22
 MB needed           =      0.07
 Data fit in memory  = YES
Calculating Nuclear repulsion               ... done (  0.0 sec) ENN=     79.232495979362 Eh

Diagonalization of the overlap matrix:
Smallest eigenvalue                        ... 4.205e-03
Time for diagonalization                   ...    0.000 sec
Threshold for overlap eigenvalues          ... 1.000e-07
Number of eigenvalues below threshold      ... 0
Time for construction of square roots      ...    0.000 sec
Total time needed                          ...    0.001 sec

-------------------
DFT GRID GENERATION
-------------------

General Integration Accuracy     IntAcc      ... 4.388
Radial Grid Type                 RadialGrid  ... OptM3 with GC (2021)
Angular Grid (max. ang.)         AngularGrid ... 4 (Lebedev-302)
Angular grid pruning method      GridPruning ... 4 (adaptive)
Weight generation scheme         WeightScheme... mBecke (2022)
Basis function cutoff            BFCut       ... 1.0000e-11
Integration weight cutoff        WCut        ... 1.0000e-14
Partially contracted basis set               ... off
Rotationally invariant grid construction     ... off
Angular grids for H and He will be reduced by one unit

Total number of grid points                  ...    33993
Total number of batches                      ...      536
Average number of points per batch           ...       63
Average number of grid points per atom       ...     4856
Grids setup in   0.1 sec
Initializing property integral containers    ... done (  0.0 sec)

SHARK setup successfully completed in   0.1 seconds

Maximum memory used throughout the entire STARTUP-calculation: 12.6 MB
-------------------------------------------------------------------------------
                                 ORCA GUESS
                   Start orbitals & Density for SCF / CASSCF
-------------------------------------------------------------------------------

------------
SCF SETTINGS
------------
Hamiltonian:
 Density Functional     Method          .... DFT(GTOs)
 Exchange Functional    Exchange        .... M062X
 Correlation Functional Correlation     .... M062X
 Gradients option       PostSCFGGA      .... off
 Hybrid DFT is turned on
   Fraction HF Exchange ScalHFX         ....  0.540000
   Scaling of DF-GGA-X  ScalDFX         ....  0.460000
   Scaling of DF-GGA-C  ScalDFC         ....  1.000000
   Scaling of DF-LDA-C  ScalLDAC        ....  1.000000
   Perturbative correction              ....  0.000000


General Settings:
 Integral files         IntName         .... oxiranyl_neb2
 Hartree-Fock type      HFTyp           .... RHF
 Total Charge           Charge          ....    0
 Multiplicity           Mult            ....    1
 Number of Electrons    NEL             ....   26
 Basis Dimension        Dim             ....   66
 Nuclear Repulsion      ENuc            ....     79.2324959794 Eh

Convergence Acceleration:
 AO-DIIS                CNVDIIS         .... on
   Start iteration      DIISMaxIt       ....    12
   Startup error        DIISStart       ....  0.200000
   # of expansion vecs  DIISMaxEq       ....     5
   Bias factor          DIISBfac        ....   1.050
   Max. coefficient     DIISMaxC        ....  10.000
 MO-DIIS                CNVKDIIS        .... off
 Trust-Rad. Augm. Hess. CNVTRAH         .... auto
   Auto Start mean grad. ratio tolernc. ....  1.125000
   Auto Start start iteration           ....     1
   Auto Start num. interpolation iter.  ....    10
   Max. Number of Micro iterations      ....    24
   Max. Number of Macro iterations      .... Maxiter - #DIIS iter
   Number of Davidson start vectors     ....     2
   Converg. threshold    (grad. norm)   ....   1.000e-05
   Grad. Scal. Fac. for Micro threshold ....   0.100
   Minimum threshold for Micro iter.    ....   1.000e-02
   NR start threshold (gradient norm)   ....   1.000e-04
   Initial trust radius                 ....   0.400
   Minimum AH scaling param. (alpha)    ....   1.000
   Maximum AH scaling param. (alpha)    .... 1000.000
   Quad. conv. algorithm                .... NR
   White noise on init. David. guess    .... on
   Maximum white noise                  ....   0.010
   Pseudo random numbers                .... off
   Inactive MOs                         .... canonical
   Orbital update algorithm             .... Taylor
   Preconditioner                       .... Diag
   Full preconditioner red. dimension   ....   250
 SOSCF                 CNVSOSCF           .... on
   Start iteration     SOSCFMaxIt         ....   150
   Startup grad/error  SOSCFStart         ....  0.003300
   Hessian update      SOSCFHessUp        .... L-BFGS
   Autom. constraints  SOSCFAutoConstrain .... off
 Level Shifting         CNVShift        .... on
   Level shift para.    LevelShift      ....    0.2500
   Turn off err/grad.   ShiftErr        ....    0.0010
 Zerner damping         CNVZerner       .... off
 Static damping         CNVDamp         .... on
   Fraction old density DampFac         ....    0.7000
   Max. Damping (<1)    DampMax         ....    0.9800
   Min. Damping (>=0)   DampMin         ....    0.0000
   Turn off err/grad.   DampErr         ....    0.1000

SCF Procedure:
 Maximum # iterations   MaxIter         ....   300
 SCF integral mode      SCFMode         .... Direct
   Integral package                     .... SHARK and LIBINT hybrid scheme
 Reset frequency        DirectResetFreq ....    20
 Integral Threshold     Thresh          ....  2.500e-11 Eh
 Primitive CutOff       TCut            ....  2.500e-12 Eh

Convergence Tolerance:
 Convergence Check Mode ConvCheckMode   .... Total+1el-Energy
 Convergence forced     ConvForced      .... 0
 Energy Change          TolE            ....  1.000e-08 Eh
 1-El. energy change                    ....  1.000e-05 Eh
 Orbital Gradient       TolG            ....  1.000e-05
 Orbital Rotation angle TolX            ....  1.000e-05
 DIIS Error             TolErr          ....  5.000e-07

---------------------
INITIAL GUESS: MOREAD
---------------------
Guess MOs are being read from file: oxiranyl_neb2.gbw
Input Geometry matches current geometry (good)
Input basis set matches current basis set (good)
Occupation numbers will be reassigned to an Aufbau configuration
MOs were renormalized
MOs were reorthogonalized (Cholesky)
                      ------------------
                      INITIAL GUESS DONE (   0.0 sec)
                      ------------------
             **** ENERGY FILE WAS UPDATED (oxiranyl_neb2.en.tmp) ****
Finished Guess after   0.0 sec
Maximum memory used throughout the entire GUESS-calculation: 4.4 MB

-------------------------------------------------------------------------------------------
                                      ORCA LEAN-SCF
                              memory conserving SCF solver
-------------------------------------------------------------------------------------------

----------------------------------------D-I-I-S--------------------------------------------
Iteration    Energy (Eh)           Delta-E    RMSDP     MaxDP     DIISErr   Damp  Time(sec)
-------------------------------------------------------------------------------------------
               ***  Starting incremental Fock matrix formation  ***
                              *** Initializing SOSCF ***
---------------------------------------S-O-S-C-F--------------------------------------
Iteration    Energy (Eh)           Delta-E    RMSDP     MaxDP     MaxGrad    Time(sec)
--------------------------------------------------------------------------------------
    1    -160.4456377823254343     0.00e+00  1.52e-05  1.78e-04  1.60e-05     0.2
               *** Restarting incremental Fock matrix formation ***
    2    -160.4456379364081613    -1.54e-07  8.20e-06  6.28e-05  2.34e-05     0.2
    3    -160.4456379736094505    -3.72e-08  4.90e-06  6.05e-05  1.32e-05     0.2
    4    -160.4456379801953858    -6.59e-09  1.85e-06  2.64e-05  5.22e-06     0.2
                 **** Energy Check signals convergence ****

               *****************************************************
               *                     SUCCESS                       *
               *           SCF CONVERGED AFTER   4 CYCLES          *
               *****************************************************

             **** ENERGY FILE WAS UPDATED (oxiranyl_neb2.en.tmp) ****

----------------
TOTAL SCF ENERGY
----------------

Total Energy       :       -160.44563798086540 Eh           -4365.94777 eV

Components:
Nuclear Repulsion  :         79.23249597936170 Eh            2156.02583 eV
Electronic Energy  :       -239.67813396022709 Eh           -6521.97360 eV
One Electron Energy:       -375.49911599374184 Eh          -10217.85041 eV
Two Electron Energy:        135.82098203351475 Eh            3695.87682 eV

Virial components:
Potential Energy   :       -319.53436096106316 Eh           -8694.97201 eV
Kinetic Energy     :        159.08872298019776 Eh            4329.02424 eV
Virial Ratio       :          2.00852929720755

DFT components:
N(Alpha)           :       12.999957769283 electrons
N(Beta)            :       12.999957769283 electrons
N(Total)           :       25.999915538566 electrons
E(XC)              :      -10.764147450813 Eh       

---------------
SCF CONVERGENCE
---------------

  Last Energy change         ...    6.5859e-09  Tolerance :   1.0000e-08
  Last MAX-Density change    ...    2.6423e-05  Tolerance :   1.0000e-07
  Last RMS-Density change    ...    1.8481e-06  Tolerance :   5.0000e-09
  Last DIIS Error            ...    1.5068e-04  Tolerance :   5.0000e-07
  Last Orbital Gradient      ...    5.2215e-06  Tolerance :   1.0000e-05
  Last Orbital Rotation      ...    3.6653e-05  Tolerance :   1.0000e-05


----------------
ORBITAL ENERGIES
----------------

  NO   OCC          E(Eh)            E(eV) 
   0   2.0000     -19.534885      -531.5712 
   1   2.0000     -10.591052      -288.1972 
   2   2.0000     -10.575028      -287.7611 
   3   2.0000      -2.117424       -57.6180 
   4   2.0000      -1.027312       -27.9546 
   5   2.0000      -0.780510       -21.2388 
   6   2.0000      -0.620203       -16.8766 
   7   2.0000      -0.511577       -13.9207 
   8   2.0000      -0.477289       -12.9877 
   9   2.0000      -0.421769       -11.4769 
  10   2.0000      -0.303030        -8.2459 
  11   2.0000      -0.284991        -7.7550 
  12   2.0000      -0.264698        -7.2028 
  13   0.0000      -0.052867        -1.4386 
  14   0.0000      -0.013402        -0.3647 
  15   0.0000       0.063239         1.7208 
  16   0.0000       0.097066         2.6413 
  17   0.0000       0.126627         3.4457 
  18   0.0000       0.148260         4.0344 
  19   0.0000       0.169340         4.6080 
  20   0.0000       0.210248         5.7211 
  21   0.0000       0.217691         5.9237 
  22   0.0000       0.292915         7.9706 
  23   0.0000       0.333610         9.0780 
*Only the first 10 virtual orbitals were printed.
-------
TIMINGS
-------

Total SCF time: 0 days 0 hours 0 min 0 sec 

Total time                  ....       0.844 sec
Sum of individual times     ....       0.678 sec  ( 80.3%)

SCF preparation             ....       0.010 sec  (  1.1%)
Fock matrix formation       ....       0.662 sec  ( 78.5%)
  Startup                   ....       0.000 sec  (  0.1% of F)
  Coulomb+Exchange Fock     ....       0.235 sec  ( 35.5% of F)
  XC integration            ....       0.577 sec  ( 87.1% of F)
    Basis function eval.    ....       0.110 sec  ( 19.0% of XC)
    Density eval.           ....       0.170 sec  ( 29.5% of XC)
    XC-Functional eval.     ....       0.052 sec  (  9.1% of XC)
    XC-Potential eval.      ....       0.226 sec  ( 39.2% of XC)
Diagonalization             ....       0.000 sec  (  0.0%)
Density matrix formation    ....       0.001 sec  (  0.1%)
Total Energy calculation    ....       0.001 sec  (  0.2%)
Population analysis         ....       0.000 sec  (  0.0%)
Orbital Transformation      ....       0.000 sec  (  0.1%)
Orbital Orthonormalization  ....       0.000 sec  (  0.0%)
DIIS solution               ....       0.001 sec  (  0.1%)
SOSCF solution              ....       0.003 sec  (  0.3%)
Finished LeanSCF after   0.9 sec

Maximum memory used throughout the entire LEANSCF-calculation: 7.3 MB

-------------------------   --------------------
FINAL SINGLE POINT ENERGY      -160.445637980865
-------------------------   --------------------

                                *** OPTIMIZATION RUN DONE ***



                    ***********************HURRAY************************
                    ***        THE TS OPTIMIZATION HAS CONVERGED      ***
                    *****************************************************



---------------------------------------------------------------
                      PATH SUMMARY FOR NEB-TS             
---------------------------------------------------------------
All forces in Eh/Bohr. Global forces for TS.

Image     E(Eh)   dE(kcal/mol)  max(|Fp|)  RMS(Fp)
  0    -160.50131     0.00       0.00029   0.00010
  1    -160.47401    17.13       0.00123   0.00061
  2    -160.45235    30.72       0.00117   0.00060
  3    -160.44520    35.21       0.00142   0.00070 <= CI
 TS    -160.44564    34.93       0.00049   0.00021 <= TS
  4    -160.44928    32.65       0.00152   0.00079
  5    -160.45980    26.05       0.00237   0.00106
  6    -160.48638     9.37       0.00204   0.00088
  7    -160.53256   -19.61       0.01138   0.00503
  8    -160.57770   -47.94       0.00175   0.00069
  9    -160.58732   -53.97       0.00476   0.00190
----------
STATISTICS
----------

For the individual parts of the NEB, NEB-CI or NEB-TS run:

Number of iterations:
     NEB                               ... 29  76.3%
     TS optimization                   ... 9  23.7%
Number of SCF / gradient calculations:
     NEB                               ... 322  97.3%
     TS optimization                   ... 9  2.7%

----------
 TIMINGS
----------

For the individual parts of the NEB, NEB-CI or NEB-TS run:

Total                                  ...      909.552 sec
NEB                                    ...      889.877 sec  97.8%
TS Optimization                        ...       19.674 sec  2.2%


------------------------------------------------------------------------------
                              ORCA PROPERTY CALCULATIONS
------------------------------------------------------------------------------

GBWName                                 ... oxiranyl_neb2.gbw
Number of atoms                         ...      7
Number of basis functions               ...     66
Max core memory                         ...   4000 MB

Electric properties:
Dipole moment                           ... YES
Quadrupole moment                       ...  NO
Static polarizability (Dipole/Dipole)   ...  NO
Static polarizability (Dipole/Quad.)    ...  NO
Static polarizability (Quad./Quad.)     ...  NO
Static polarizability (Velocity)        ...  NO
Static hyperpolarizability              ...  NO

Atomic electric properties:
Dipole moment                           ...  NO
Quadrupole moment                       ...  NO
Static polarizability                   ...  NO

Choice of electric origin               ... Center of mass
Position of electric origin             ...     0.515529    -0.537794     0.492734

General magnetic properties:
Magnetizability                         ...  NO

EPR properties:
g-Tensor (aka g-matrix)                 ...  NO
Zero-Field splitting spin-orbit         ...  NO
Zero-field splitting spin-spin          ...  NO
Hyperfine couplings                     ...  NO (   0 nuclei)
Quadrupole couplings                    ...  NO (   0 nuclei)
Contact density                         ...  NO (   0 nuclei)

NMR properties:
Chemical shifts                         ...  NO (   0 nuclei)
Spin-rotation constants                 ...  NO (   0 nuclei)
Spin-spin couplings                     ...  NO (   0 nuclei,    0 pairs)

Choice of magnetic origin               ... GIAO
Position of magnetic origin             ...     0.000000     0.000000     0.000000

Properties with geometric perturbations:
SCF Hessian                             ...  NO
IR spectrum                             ...  NO
VCD spectrum                            ...  NO
X-ray spectroscopy properties:
SCF XES/XAS/RIXS spectra                ...  NO

SCF SOC stabilization energy            ...  NO
Diagonal Born-Oppenheimer correction    ...  NO

-------------
DIPOLE MOMENT
-------------

Method             : SCF
Type of density    : Electron Density
Multiplicity       :   1
Irrep              :   0
Energy             :  -160.4456379808653992 Eh
Basis              : AO
                                X                 Y                 Z
Electronic contribution:      5.071060118      -2.359883695       1.208543261
Nuclear contribution   :     -3.958885014       2.529437229      -1.818016959
                        -----------------------------------------
Total Dipole Moment    :      1.112175104       0.169553533      -0.609473698
                        -----------------------------------------
Magnitude (a.u.)       :      1.279507738
Magnitude (Debye)      :      3.252250210



--------------------
Rotational spectrum 
--------------------
 
Rotational constants in cm-1:             0.545087             0.395594             0.248350 
Rotational constants in MHz :         16341.291228         11859.598742          7445.352593 

Dipole components along the rotational axes: 
x,y,z [a.u.] :     0.379567     1.182894    -0.306320 
x,y,z [Debye]:     0.964782     3.006677    -0.778603 

 

Dipole moment calculation done in   0.0 sec 

Maximum memory used throughout the entire PROP-calculation: 2.5 MB

--------------------------------
SUGGESTED CITATIONS FOR THIS RUN
--------------------------------

Below you find a list of papers that are relevant to this ORCA run
We neither can nor want to force you to cite these papers, but we appreciate if you do
You receive ORCA, which is the product of decades of hard work by many enthusiastic individuals, for free
The only thing we kindly ask in return is that you cite our papers,
We deeply appreciate it, if you show your appreciation for ORCA by not just citing the generic ORCA reference.

Please note that relegating all ORCA citations to the supporting information does *not* help us.
SI sections are not indexed - citations you put there will not count into any citation statistics
But we need these citations in order to attract the funding resources that allow us to do what we are doing

Therefore, if you are a happy ORCA user, please consider citing a few of the papers listed below in the main body of your paper

In addition to the list printed below, the program has created the file oxiranyl_neb2.bibtex that contains the list in bibtex format
You can import this file easily into all common literature databanks and citation aid programs

It goes without saying that in many instances, there are alternative algorithms to achieve similar
results as the ones you have gotten from ORCA. It is, of course, also the case that in some instances
ORCA just re-implements algorithms worked out by others. We are fully aware of that and we are also
fully appreciative of our colleagues work. Hence this citation list should not be read as indicating
that the listed papers, which are focused on our own work, are the only ones worth citing. It simply
meant to make it easier for users to cite ORCA specific papers. It is not a substitute for doing your
own literature research and citing the relevant literature in a scientifically appropriate manner.

List of essential papers. We consider these as the minimum necessary citations

  1. Neese, F.
     Software update: the ORCA program system, version 6.0
     WIRES Comput. Molec. Sci. 2025 15(1), e70019
     doi.org/10.1002/wcms.70019

List of papers to cite with high priority. The work reported in these papers was absolutely
necessary for this run to complete.
Our perspective: the developers of density functionals and basis sets usually get cited in chemistry papers
Good! But without the algorithms to do something with them, the functionals or basis sets would not do anything.
Hence, in our opinion, the algorithm design and method developments papers are equally worthy of getting cited

  1. Asgeirsson, V.; Orri Birgisson, B.; Björnsson, R.; Becker, U.; Neese, F.; Riplinger, C.; Jonsson, H.
     Nudged Elastic Band Method for Molecular Reactions Using Energy-Weighted Springs Combined with Eigenvector Following
     J. Chem. Theory Comput. 2021 17(8), 4929-4945
     doi.org/10.1021/acs.jctc.1c00462
  2. Neese, F.
     The SHARK Integral Generation and Digestion System
     J. Comp. Chem. 2022 44(3), 381
     doi.org/10.1002/jcc.26942
  3. Schmerwitz, Y.L.A.; Asgeirsson, V.; Jonsson, H.
     Improved Initialization of Optimal Path Calculations
     Using Sequential Traversal over the
     Image-Dependent Pair Potential Surface
     J. Chem. Theory Comput. 2023 20(1), 155-163
     doi.org/10.1021/acs.jctc.3c01111

List of suggested additional citations. These are papers that are important in the 'surrounding' of 
of this run, or papers that preceded the highly important papers. If you like your results we are grateful for a citation.

  1. Neese, F.
     The ORCA program system
     WIRES Comput. Molec. Sci. 2012 2(1), 73-78
     doi.org/10.1002/wcms.81
  2. Neese, F.
     Software update: the ORCA program system, version 4.0
     WIRES Comput. Molec. Sci. 2018 8(1), 1-6
     doi.org/10.1002/wcms.1327
  3. Neese, F.; Wennmohs, F.; Becker, U.; Riplinger, C.
     The ORCA quantum chemistry program package
     J. Chem. Phys. 2020 152(22), 224108
     doi.org/10.1063/5.0004608
  4. Neese, F.
     Software update: The ORCA program system—Version 5.0
     WIRES Comput. Molec. Sci. 2022 12(1), e1606
     doi.org/10.1002/wcms.1606

List of optional additional citations

  1. Neese, F.
     Approximate second-order SCF convergence for spin unrestricted wavefunctions
     Chem. Phys. Lett. 2000 325(1-3), 93-98
     doi.org/10.1016/s0009-2614(00)00662-x

Timings for individual modules:

Sum of individual times          ...      915.942 sec (=  15.266 min)
Startup calculation              ...        1.828 sec (=   0.030 min)   0.2 %
SCF iterations                   ...       17.168 sec (=   0.286 min)   1.9 %
Property calculations            ...        0.049 sec (=   0.001 min)   0.0 %
SCF Gradient evaluation          ...        6.972 sec (=   0.116 min)   0.8 %
Geometry relaxation              ...        0.048 sec (=   0.001 min)   0.0 %
NEB Iterations                   ...      889.877 sec (=  14.831 min)  97.2 %
                             ****ORCA TERMINATED NORMALLY****
TOTAL RUN TIME: 0 days 0 hours 15 minutes 9 seconds 795 msec
