7
Coordinates from ORCA-job oxiranyl_optts_cpcm E -160.460420887379
  Li          1.76947921894644     -0.88642938113160      0.38333355204535
  C           0.59633284559607      0.65218870327999     -0.47799339709008
  C          -0.50591310933525     -0.19036813723796      0.04834566301386
  O           0.13727858870692     -0.89428598377555      1.04968570276364
  H           0.30048954354199      1.71122895085751     -0.61716722787744
  H          -1.37794134013501      0.39848290516764      0.41989098638750
  H          -0.91972574732116     -0.79081705716004     -0.80609527924283
