7
Coordinates from ORCA-job oxiranyl_scan2 E -160.546803860210
  Li          1.44555321704231     -1.06376338245146      0.74326680944577
  C          -0.01311100182938      0.47153462393518     -0.83424324404735
  C          -0.39612969639423     -0.14337544832118      0.44872516225327
  O          -0.18365426314409     -1.29098073418858      1.24835662231885
  H          -0.33894624080366      1.49962816330695     -0.97298272537997
  H          -0.99813083565384      0.58520102998017      1.01965529605789
  H           0.48441982078289     -0.05824525226107     -1.65277792064846
