7
Coordinates from ORCA-job oxiranyl_scan2 E -160.488583021904
  Li          1.77017826280563     -0.88238399477787      0.16447721670775
  C           0.59584216232625      0.54817749886057     -0.50273726492018
  C          -0.64933621317236     -0.17155338319946     -0.08311121335617
  O           0.24959905408318     -0.40253960131135      0.98761965960828
  H           0.51755256448911      1.58997433322647     -0.14720544643555
  H          -1.54293682908259      0.39668473913131      0.22022838650120
  H          -0.94089800144923     -1.07836059192966     -0.63927133810533
