7
Coordinates from ORCA-job oxiranyl_neb2_NEB-CI_converged E -160.445200220895
  Li          1.72005853235650     -0.89740838194222      0.36653133391832
  C           0.59863163549332      0.66623804902931     -0.46196881933904
  C          -0.48728223044806     -0.18621185059075      0.07449860982499
  O           0.13700511673253     -0.90628635298509      1.06198986808809
  H           0.29408540499611      1.71389175605751     -0.65985975463607
  H          -1.38473489438843      0.37592547220261      0.43198867138816
  H          -0.87776356474197     -0.76614869177136     -0.81317990924445
