7
Coordinates from ORCA-job oxiranyl_opt_cpcm E -160.505432644003
  Li          2.22646240758195     -0.81907058704152     -0.40453856383410
  C           0.63674822174787      0.34035266695995     -0.03799171302508
  C          -0.76322661396992     -0.17498093605573     -0.06833685076932
  O          -0.09959205818115     -0.13331018587027      1.16074788256392
  H           0.59162647828082      1.44808256417325     -0.02546784979600
  H          -1.61276323327101      0.51745623839140     -0.16055705542119
  H          -0.97925420218855     -1.17853076055708     -0.46385584971823
