7
Coordinates from ORCA-job oxiranyl_scan2 E -160.490091292562
  Li          1.50596841795049     -1.33071047913443      1.06485876141523
  C          -0.07426516279641      0.55177808864478     -0.95002249175367
  C          -0.32985170752492     -0.10622298461868      0.35871563085793
  O          -0.14613606442440     -1.34634938400774      1.37203411005436
  H          -0.48517990407155      1.55629331839786     -1.03103786953207
  H          -0.91777352910958      0.58106768185276      0.97880889937647
  H           0.44723894997637      0.09414275886547     -1.79335704041825
