7
Coordinates from ORCA-job oxiranyl_opt E -160.501309240084
  Li          1.78949698843960     -0.90853585602395      0.12275010776085
  C           0.60492022866347      0.50421876265672     -0.37291617548879
  C          -0.68693592057678     -0.17191687585579     -0.11298955557075
  O           0.28832089136863     -0.28147797121388      0.90720513402910
  H           0.52221604762733      1.57350895027668     -0.12165741060407
  H          -1.57303346237902      0.39527148544917      0.20064529154010
  H          -0.94498377314324     -1.11106949528895     -0.62303739166644
