7
Coordinates from ORCA-job oxiranyl_scan2 E -160.450329189673
  Li          1.73362926965947     -0.88454133915899      0.27804650058382
  C           0.59728746324556      0.63970312799794     -0.60834695162575
  C          -0.56731075688652     -0.18782194559291     -0.01805492983809
  O           0.16682298576408     -0.69276393149515      1.08966154993554
  H           0.44648327072751      1.70626414263523     -0.34935850477035
  H          -1.44635171328359      0.39817032418023      0.31134980714445
  H          -0.93055951922651     -0.97901137856636     -0.70329747142961
