7
Coordinates from ORCA-job oxiranyl_scan2 E -160.587112140788
  Li          1.42599164586019     -0.79378271306997      0.46146131645121
  C           0.04823239997929      0.41044280181491     -0.66133571371922
  C          -0.48076616402920     -0.09042532620066      0.50497630454845
  O          -0.17406565121237     -1.24292492076208      0.97112837566334
  H          -0.15729441714737      1.42702887192113     -0.99262127937481
  H          -1.11536661039380      0.57511714870732      1.12492197817289
  H           0.45326979694326     -0.28545686241066     -1.40853098174186
