7
Coordinates from ORCA-job oxiranyl_scan2 E -160.476721394200
  Li          1.75326457652792     -0.87913299587404      0.18765025547422
  C           0.59159625636599      0.57707493745029     -0.55581992290576
  C          -0.62750693508599     -0.17346967729484     -0.06677376963574
  O           0.22713508742072     -0.47271677878672      1.02771135743712
  H           0.51105325737392      1.61323442140984     -0.17907371715613
  H          -1.52286704525623      0.39452029332344      0.23730257157083
  H          -0.93267419734634     -1.05951120022797     -0.65099677478455
