7
Coordinates from ORCA-job oxiranyl_scan2 E -160.463501673693
  Li          1.75789823352094     -0.86417396215165      0.23367166915968
  C           0.58652189175000      0.60227163499304     -0.60234606003913
  C          -0.60716948493865     -0.17975037682963     -0.04854303476671
  O           0.19950284703822     -0.57211968582189      1.05491591139480
  H           0.49874117321247      1.64299375496808     -0.23441010347592
  H          -1.49281397151964      0.39955720302625      0.26820699908400
  H          -0.94267968906334     -1.02877956818419     -0.67149538135672
