7
Coordinates from ORCA-job oxiranyl_scan2 E -160.568735249242
  Li          1.42460409162287     -0.95505087082740      0.59835971720313
  C           0.01648230240273      0.44239446188237     -0.76773704454111
  C          -0.42790352431755     -0.13533610800109      0.47747963350272
  O          -0.18650605476015     -1.26887032107952      1.17975678422286
  H          -0.27297995892076      1.47116698020226     -0.96828909249055
  H          -1.04754271673096      0.58367588843445      1.04718437204270
  H           0.49384686070381     -0.13798103061106     -1.56675436993975
