7
Coordinates from ORCA-job oxiranyl_scan2 E -160.519751629443
  Li          1.48357011231147     -1.20219673503162      0.94662914118487
  C          -0.05066734358135      0.51321065593115     -0.90419283403871
  C          -0.35824606312360     -0.13520325297651      0.40176036168636
  O          -0.17097343550545     -1.32077640588271      1.29595810992804
  H          -0.41643291344600      1.53350741035697     -0.99440800950609
  H          -0.93959615160442      0.58494822777273      0.99760637313208
  H           0.45234679494935      0.02650909982998     -1.74335314238654
