7
Coordinates from ORCA-job oxiranyl_scan2 E -160.582943846198
  Li          1.41993131139165     -0.86327072058264      0.51262578262087
  C           0.03726046478022      0.42446957664341     -0.70969869932424
  C          -0.45526761589165     -0.11650311132626      0.49328862593831
  O          -0.18441966310547     -1.25764033786871      1.08161330400710
  H          -0.21298433537831      1.44859188684955     -0.97702700533519
  H          -1.08311413242448      0.58085514404571      1.08420916974261
  H           0.47859497062804     -0.21650343776106     -1.48501117764946
