7
Coordinates from ORCA-job oxiranyl_scan2 E -160.497518079011
  Li          1.78246753206417     -0.89128181108054      0.14317414092146
  C           0.60054868552837      0.52334339336619     -0.44087663117930
  C          -0.66904356004895     -0.17109996399853     -0.09827029408697
  O           0.26952854570390     -0.34053566165920      0.94727657978728
  H           0.52108498684965      1.57743503310980     -0.12969461627157
  H          -1.55925605991695      0.39729280624334      0.20852152279039
  H          -0.94532913018019     -1.09515479598107     -0.63013070196128
