25
Coordinates from ORCA-job phli_thf_scan E -471.023076360126
  Li          3.19287693313743      0.67954176846606      0.02737069956322
  C           1.17583796167047      0.43746470481085      0.09239213704278
  C           0.68157054230781     -0.67665452543927     -0.63211972556677
  C          -0.67779724956115     -0.97225375922289     -0.77479783385830
  C          -1.63384688101391     -0.13113405045697     -0.20840555610424
  C          -1.20586515139436      1.00075349438881      0.48779314963800
  C           0.15752687919349      1.26815006943627      0.61906311081614
  H           1.38746254831290     -1.37167735010182     -1.11096675244168
  H          -0.99167207698261     -1.85377660394924     -1.34037085954122
  H          -2.69866469555969     -0.34810429377316     -0.31519147023737
  H          -1.94185260575589      1.68203833858707      0.92305430578920
  H           0.43594857186340      2.16416780113436      1.18965352524284
  C           2.39541773841477     -2.12874616155096      2.14910128139420
  C           3.81723962414876     -2.69694295070498      2.20654026127931
  C           4.56882252114151     -1.79118439570266      1.23314587420977
  O           3.86935125870023     -0.54317977326663      1.25224770320196
  C           2.63903314946079     -0.63898786357274      2.03920802670791
  H           1.86659594321487     -2.48162504782334      1.24727223849845
  H           1.78755273150065     -2.39120003404292      3.02417173814223
  H           4.22727284601008     -2.58655033694275      3.22145482387412
  H           3.88527576789291     -3.75571020849769      1.92285958501516
  H           4.54466421708694     -2.19804132924675      0.20864416877285
  H           5.61765896496461     -1.62204693326516      1.51680527580708
  H           2.80919252766321     -0.15777988185740      3.01659305996523
  H           1.87545193358257     -0.07619667740600      1.31932623278901
