25
Coordinates from ORCA-job phli_thf_scan E -471.059442309432
  Li          3.32707189141495      0.85183167741980      0.16738707570144
  C           1.41202381905725      0.50141326147065     -0.26397822725883
  C           1.04713547939666     -0.62549810278058     -1.03717840452663
  C          -0.21985172551334     -1.21863952886278     -1.00243056434390
  C          -1.20988636192109     -0.69277589497984     -0.17252310268576
  C          -0.91447340475036      0.43270681533690      0.59678583798238
  C           0.36208647047671      1.00199417568778      0.53944798277215
  H           1.78245120698059     -1.08279378312698     -1.71503069783924
  H          -0.43797722421059     -2.09228267703341     -1.62301442769322
  H          -2.20110383939158     -1.14953518223350     -0.13040984403050
  H          -1.68140386776967      0.86526490483052      1.24530191841564
  H           0.53382177472125      1.88512315559428      1.17111596867973
  C           2.13109577254945     -1.59525843980228      2.47144708444532
  C           3.15014910976970     -2.59366986137134      1.92061929101809
  C           3.94575777059260     -1.72987199575204      0.94784354058681
  O           3.89137036671624     -0.39158069231934      1.47677872944833
  C           2.97032583407091     -0.33298296807723      2.58455169824397
  H           1.31984637903203     -1.43029181264051      1.74528652154409
  H           1.69872852073698     -1.89955421275410      3.43317121534102
  H           3.80121243211291     -2.96901538312597      2.72471070004292
  H           2.68542293053145     -3.45235092067724      1.42024853846201
  H           3.47262806535213     -1.72991266783235     -0.04825862834678
  H           4.99986223613625     -2.02543421174174      0.85618350671106
  H           3.55241172578275     -0.29746931786886      3.51967432772131
  H           2.36634863812577      0.58090766264016      2.48711495960859
