25
Coordinates from ORCA-job phli_thf_scan E -471.047602649688
  Li          3.17411423212101      0.68882711680297      0.04182958356097
  C           1.17059916726195      0.53870074224266     -0.05409256690599
  C           0.67580702218457     -0.63980327674243     -0.66397611731939
  C          -0.68107002769289     -0.97316518594848     -0.73244007754570
  C          -1.63390214895214     -0.11250627828347     -0.18948608958658
  C          -1.20619853006846      1.07530841511109      0.40434121668453
  C           0.15677592947886      1.38129701402075      0.45620324615130
  H           1.37869806142822     -1.35844535297088     -1.11280965308802
  H          -0.99766426760594     -1.90200939330769     -1.21513377334443
  H          -2.69655456249433     -0.36097399021898     -0.23306302444521
  H          -1.94009113746203      1.76824810826086      0.82493555932566
  H           0.43231605968714      2.32859627590775      0.93803595831954
  C           2.42150654068597     -2.22870549543807      2.18579194602365
  C           3.86720410183928     -2.73096267951248      2.17987193496326
  C           4.54624126742446     -1.74834065955346      1.22808954479489
  O           3.79118481525391     -0.53572674601200      1.32172553125345
  C           2.60830577771324     -0.72342137430156      2.14462165224572
  H           1.88508776262195     -2.55468141771648      1.28068820896895
  H           1.84864343936237     -2.55621870887713      3.06246224331494
  H           4.30245822804099     -2.64715868247049      3.18686624618886
  H           3.97360395866627     -3.77143707379406      1.84657504780324
  H           4.51068723921504     -2.11005560171866      0.18721915494978
  H           5.59359329637916     -1.54157887108870      1.49053570842253
  H           2.80148694203875     -0.29581811668372      3.14180670228948
  H           1.80222083287250     -0.17964476770727      1.59424681697449
