25
Coordinates from ORCA-job phli_thf_scan E -471.038159691147
  Li          3.18951742960442      0.68131324578637      0.02179054772853
  C           1.17590731342880      0.48849389739817      0.01737165359680
  C           0.67712398868891     -0.65789640947055     -0.64958752267836
  C          -0.68203306098183     -0.97145593972068     -0.75340485100537
  C          -1.63417720867524     -0.11946259049773     -0.19615309157440
  C          -1.20268802709407      1.04057440283122      0.44858636209932
  C           0.16189852791942      1.32685852443790      0.53680050325557
  H           1.37935265608436     -1.36681813481928     -1.11424865200302
  H          -0.99958039429728     -1.87642301943599     -1.27873577015472
  H          -2.69887001807112     -0.35107314435619     -0.26978501565196
  H          -1.93578050111575      1.72846493853928      0.87862184893956
  H           0.44099676717387      2.24962962259999      1.06240766326587
  C           2.40805239733252     -2.18579835173934      2.16419799288100
  C           3.84562084017092     -2.71203871612728      2.19737059764969
  C           4.55790144852222     -1.76556385547596      1.23350135280528
  O           3.82642930845790     -0.53706767563786      1.29041400726282
  C           2.61480667588336     -0.68605259620452      2.08720334452734
  H           1.88233762414421     -2.52951859437461      1.25852087007363
  H           1.81493121668388     -2.48299004373353      3.03821339603442
  H           4.26386772652780     -2.60847452356533      3.20969493905832
  H           3.94113002233824     -3.76268752779995      1.89332085588204
  H           4.52872956090103     -2.15101190827708      0.20084401515537
  H           5.60588605020049     -1.57417908746085      1.50533797428870
  H           2.78567984118412     -0.22830234618404      3.07518107350949
  H           1.83801381498864     -0.13819616671209      1.45738090505398
