25
Coordinates from ORCA-job phli_thf_scan E -471.059014027046
  Li          3.31793193450066      0.81803418025968      0.15317675716909
  C           1.37994844118076      0.49675229976789     -0.22634597690996
  C           0.98949445001700     -0.61057629243123     -1.01491771638559
  C          -0.29826806192798     -1.15918555690794     -1.00712078019443
  C          -1.28402818277748     -0.60478859234130     -0.19139308146340
  C          -0.96248755425402      0.50269774297823      0.59347821532238
  C           0.33364572326731      1.02712482185516      0.56278131652707
  H           1.72036929957085     -1.08890857519208     -1.68293558686783
  H          -0.53507513125862     -2.02083979520216     -1.63753171438842
  H          -2.29179572411447     -1.02523017765776     -0.17182524123165
  H          -1.72523589983110      0.95728876649602      1.23180094243686
  H           0.52553833441677      1.89820558080306      1.20559871950683
  C           2.16627295607183     -1.67244910362686      2.43211336782172
  C           3.26931672084687     -2.62713716772226      1.97422159029472
  C           4.04355258574833     -1.75935732449407      0.98919044632027
  O           3.90197249885210     -0.41003784633851      1.46690255475800
  C           2.92090934904715     -0.35581795738615      2.52424306791386
  H           1.38183421228915     -1.58430705197713      1.66391195073064
  H           1.70667735856592     -1.96079857302034      3.38593142079785
  H           3.91046169798383     -2.91280472662079      2.82209341259103
  H           2.88744561128746     -3.54305416019923      1.50587518177394
  H           3.59976981210611     -1.82547751390178     -0.01874843600454
  H           5.11400138193622     -1.99990594589514      0.93330862080386
  H           3.44735755333708     -0.23565255113726      3.48450581255911
  H           2.26544463313821      0.50654951989196      2.33653015611857
