25
Coordinates from ORCA-job phli_thf_scan E -471.057810427354
  Li          3.31294645380938      0.80028893060915      0.14614512113096
  C           1.35651358944161      0.52093760476034     -0.16556008021712
  C           0.97582844105566     -0.59545700009265     -0.94685687580555
  C          -0.32047858845896     -1.12371440946960     -0.97680116861551
  C          -1.32561939125657     -0.53724049622517     -0.20936462481027
  C          -1.01326662174395      0.57862899741114      0.56774834607686
  C           0.29159252626724      1.08100033244956      0.57621133581806
  H           1.72152739666229     -1.09893617150551     -1.58002627575491
  H          -0.54878708754687     -1.99273694958199     -1.60019120604805
  H          -2.34115563715478     -0.93874654547906     -0.22205461562525
  H          -1.79167756894275      1.05926446731432      1.16678300224400
  H           0.47603984698133      1.95855719826149      1.21195028222696
  C           2.20031798043395     -1.74638058302812      2.41580213930871
  C           3.35571135200662     -2.65886529266443      2.00322438208741
  C           4.09420200463466     -1.78481400229535      0.99760626619707
  O           3.89823693275934     -0.43366604447850      1.44561948518146
  C           2.87853822336078     -0.38655125033130      2.46882196887891
  H           1.42198614758249     -1.72792707927562      1.63694811604063
  H           1.74321229128197     -2.02459270344190      3.37376120318747
  H           4.00229876442888     -2.88352684029029      2.86503701123822
  H           3.02469345231879     -3.60785055420232      1.56253504445161
  H           3.65380603169021     -1.89349373726048     -0.00825939395338
  H           5.17348485411081     -1.98264873205920      0.94506555694544
  H           3.36580187054844     -0.19137451707810      3.43697221375659
  H           2.17930073572937      0.42016937795364      2.20372776605967
