25
Coordinates from ORCA-job phli_thf_scan E -471.056445698976
  Li          3.17091251338918      0.77111292363573      0.18430580390377
  C           1.19782654186295      0.60420443443478     -0.09971460696888
  C           0.76791156602057     -0.63467632290091     -0.63156753591239
  C          -0.57291820130584     -1.02786892251469     -0.71148976884124
  C          -1.57307734869000     -0.17320431315755     -0.25058881875376
  C          -1.20825491838702      1.06584874122843      0.27645411063628
  C           0.14015562663885      1.43091642556330      0.34097740534049
  H           1.50808479073132     -1.35124234248454     -1.01965198166607
  H          -0.83905864250734     -1.99950588477074     -1.13733688378201
  H          -2.62370114096827     -0.46698678260235     -0.30366330227325
  H          -1.97963082291555      1.75089628387107      0.63894142326631
  H           0.36351306861888      2.41872333930734      0.76475843292477
  C           2.41568911464276     -2.20791539927354      2.31740599456058
  C           3.81832972196221     -2.76314860213961      2.06818812573048
  C           4.39278952139812     -1.73561457852595      1.09935481376052
  O           3.76291544044376     -0.49408023641353      1.43994463764453
  C           2.67345727124429     -0.71091039105715      2.36914252930156
  H           1.74898516037976     -2.43373188057929      1.47121897563829
  H           1.95334327147359     -2.58599236450950      3.23780786782465
  H           4.40067711057139     -2.77180850690614      3.00183431930517
  H           3.82413964079312     -3.77787977354721      1.65034585609378
  H           4.14063499100636     -1.99079168418074      0.05583600864445
  H           5.48197250523067     -1.61562738938499      1.18155540687782
  H           2.99826701872550     -0.37649874368215      3.36703430832224
  H           1.82209019964066     -0.11389402941002      2.00375187842183
