25
PhLi+THF optimized M06-2X/def2-SVP
  Li      3.152420      0.771475      0.242623
  C       1.222153      0.482578     -0.160264
  C       0.840966     -0.714020     -0.810783
  C      -0.483623     -1.150610     -0.927873
  C      -1.515290     -0.388450     -0.381156
  C      -1.198311      0.802848      0.271855
  C       0.135080      1.212612      0.371008
  H       1.607569     -1.357367     -1.268439
  H      -0.713412     -2.083451     -1.450268
  H      -2.553444     -0.717298     -0.464709
  H      -1.994962      1.413826      0.705312
  H       0.321069      2.159186      0.896109
  C       2.369946     -1.887423      2.513941
  C       3.551562     -2.699741      1.979107
  C       4.215475     -1.711558      1.022240
  O       3.879488     -0.403302      1.513602
  C       2.986658     -0.504917      2.639235
  H       1.553680     -1.852386      1.775904
  H       1.979124     -2.262965      3.468018
  H       4.239642     -2.965103      2.795680
  H       3.249586     -3.623941      1.470603
  H       3.812566     -1.816383      0.001689
  H       5.309672     -1.805345      0.983894
  H       3.570477     -0.391989      3.567313
  H       2.246963      0.304048      2.560204
