25
Coordinates from ORCA-job phli_thf_scan E -471.053218526687
  Li          3.18707078573593      0.75099691337611      0.13392507283558
  C           1.19831876557780      0.59246198187678     -0.07704057569368
  C           0.74932315577167     -0.62803883802281     -0.63637571800002
  C          -0.59584227694512     -1.00636827435732     -0.70830354591929
  C          -1.58213468537954     -0.15332422380034     -0.21515252105771
  C          -1.19908491185277      1.07066345675355      0.33358787291415
  C           0.15344000237145      1.42135613987350      0.38931406750047
  H           1.47862594626473     -1.34334030109714     -1.04705648466770
  H          -0.87724313746655     -1.96492341295208     -1.15343449187165
  H          -2.63605248839370     -0.43623840044490     -0.26125296272931
  H          -1.95882058251561      1.75607066823460      0.71919518242800
  H           0.39186352569856      2.39704106199638      0.83251105796156
  C           2.41098932823855     -2.22558595236788      2.26178826063177
  C           3.84123133302233     -2.74811825131419      2.11714710333211
  C           4.44028715894008     -1.74498346889919      1.13834814524821
  O           3.76831731134939     -0.50816227731856      1.40312789928753
  C           2.62078370029278     -0.72022145868024      2.26690325608009
  H           1.80032301083861     -2.50737549613231      1.39007241129966
  H           1.90520515702206     -2.58066263085322      3.16848408219870
  H           4.36737167209178     -2.69707134515802      3.08237700753016
  H           3.90166164819138     -3.77923795307393      1.74594903633609
  H           4.24176939475888     -2.04529389302432      0.09525093917996
  H           5.52165809299966     -1.59732602057610      1.26579945469733
  H           2.86705882618936     -0.33379866740803      3.26840434244727
  H           1.78893326719816     -0.15819535663030      1.80127610803066
