25
Coordinates from ORCA-job phli_thf_scan E -471.027504089890
  Li          1.69433996041809      0.43376764457596      1.02927816633291
  C          -0.46124480358844     -0.74915478103733      1.45015708159505
  C           0.01519466004816     -1.49613860244920      0.37371721175030
  C           0.17681360988369     -0.88133879163002     -0.87207051376346
  C          -0.12877662444390      0.47158125938103     -1.03027948382937
  C          -0.60678314732667      1.21470125578644      0.05544322374450
  C          -0.77838618752878      0.60286372667575      1.30175160160823
  H           0.27874162465567     -2.54566085820633      0.50815846775000
  H           0.56582925427109     -1.45437595161736     -1.71474283781457
  H           0.01158792941852      0.95063279939026     -2.00002883943504
  H          -0.84125927238654      2.27292175915110     -0.06884446619534
  H          -1.13627974141077      1.17935477545909      2.15499693557816
  C           3.15634780651007     -1.61693725961759      2.68478198477906
  C           4.05171579583460     -2.41653885429011      1.72376419222454
  C           3.69523450877987     -1.80593405490214      0.36446455249594
  O           3.19495427759507     -0.50475214316243      0.63912958697897
  C           3.17959899951770     -0.20691770995651      2.11330863227401
  H           2.13849382633923     -2.05558724879410      2.67932809616574
  H           3.51539535878048     -1.64710771985119      3.72384570434163
  H           5.10897161555701     -2.22040355388010      1.95822047381966
  H           3.89377108072461     -3.50557571164135      1.74466486495523
  H           2.91206682297171     -2.39391831055846     -0.15123605789880
  H           4.56376826653311     -1.74204789259318     -0.31113009509761
  H           4.16423400666974      0.24207840715172      2.34206237097546
  H          -0.57927562782369     -1.31518818338380      2.61610414666462
