25
Coordinates from ORCA-job phli_thf_opt E -471.058783360116
  Li          3.15242000481764      0.77147532770719      0.24262338768521
  C           1.22215314745476      0.48257768231209     -0.16026415095710
  C           0.84096555701347     -0.71402032777313     -0.81078265721014
  C          -0.48362294931607     -1.15061012452150     -0.92787261846676
  C          -1.51529023488647     -0.38845014542955     -0.38115645443896
  C          -1.19831089784721      0.80284830333487      0.27185470241159
  C           0.13507990425667      1.21261208178996      0.37100750158283
  H           1.60756926757136     -1.35736686528765     -1.26843911929910
  H          -0.71341183189505     -2.08345141165299     -1.45026837999730
  H          -2.55344438212634     -0.71729830955096     -0.46470947393083
  H          -1.99496244602407      1.41382645348096      0.70531221790784
  H           0.32106917890087      2.15918633679137      0.89610878266751
  C           2.36994629391852     -1.88742272998859      2.51394093837640
  C           3.55156190226814     -2.69974127084539      1.97910664631355
  C           4.21547520330315     -1.71155764528902      1.02224010530397
  O           3.87948811858284     -0.40330207268372      1.51360160378989
  C           2.98665785639980     -0.50491732681982      2.63923516950840
  H           1.55368014230616     -1.85238593043399      1.77590390574257
  H           1.97912407328564     -2.26296482745220      3.46801826697086
  H           4.23964206625696     -2.96510327165428      2.79567955426118
  H           3.24958613460774     -3.62394128158362      1.47060255973429
  H           3.81256576872421     -1.81638258718651      0.00168884078858
  H           5.30967156249096     -1.80534494291797      0.98389440060864
  H           3.57047734784720     -0.39198938924569      3.56731283590823
  H           2.24696321208893      0.30404827490020      2.56020443473857
