12
Coordinates from ORCA-job phli_opt E -238.855727325319
  Li          3.30060414474283     -0.57768579574301     -0.06801855142401
  C           1.36858612328717     -0.24089384391029     -0.02992424129810
  C           0.81911430556100      1.05989184467410      0.00496433546045
  C          -0.55474998547999      1.31634663943035      0.03551487020243
  C          -1.46067488804842      0.25652721424462      0.03139017423401
  C          -0.97130325063521     -1.04861603316219     -0.00314924638910
  C           0.40774817695585     -1.27606939747023     -0.03271008172084
  H           1.48126636093888      1.93568701224026      0.00970108169769
  H          -0.91991492978998      2.34636044858087      0.06252617220710
  H          -2.53603484384420      0.44589603686277      0.05489864208031
  H          -1.66610296400960     -1.89263297975283     -0.00699754538147
  H           0.73145975032166     -2.32481114599442     -0.05819460966846
